% Real instance from AcademiAPP, period 3 (Marzo 2023 - Julio 2023).
% Generated by scripts/academiapp/make_instances.py from the CSV
% snapshot. Enrollment caps: room-proxy (the API does not
% publish them); subject resource requirements are inferred from the
% room the campus used. Both are approximations, not campus data.
% Availability repair: none. The schedule the campus ran
% violates the model's hard constraints (teacher clashes 17, rooms double-booked 18, same-cohort overlaps 14, hours taught outside the
% declared availability 24), so
% this instance can be unsatisfiable for reasons present in the data.

diurno = {1, 2, 3, 4, 5, 6, 7, 8, 9, 10, 11, 12, 17, 18, 19, 20, 21, 22, 23, 24, 25, 26, 27, 28, 33, 34, 35, 36, 37, 38, 39, 40, 41, 42, 43, 44, 49, 50, 51, 52, 53, 54, 55, 56, 57, 58, 59, 60, 65, 66, 67, 68, 69, 70, 71, 72, 73, 74, 75, 76, 81, 82, 83, 84, 85, 86, 87, 88, 89, 90, 91, 92};
nocturno = {13, 14, 15, 16, 29, 30, 31, 32, 45, 46, 47, 48, 61, 62, 63, 64, 77, 78, 79, 80, 93, 94, 95, 96};
H = 96;
asignaturas = 286;
docentes = 107;

A=[|1, 4, 107, 50, 0, 4
|1, 4, 108, 50, 0, 4
|1, 4, 109, 50, 0, 4
|1, 4, 109, 51, 0, 4
|1, 4, 112, 50, 0, 2
|1, 4, 112, 51, 0, 2
|1, 4, 113, 50, 0, 3
|1, 4, 114, 50, 0, 3
|1, 4, 115, 50, 0, 5
|1, 5, 116, 50, 0, 3
|1, 5, 117, 50, 0, 3
|1, 5, 118, 50, 0, 4
|1, 5, 119, 50, 0, 2
|1, 5, 119, 51, 0, 2
|1, 5, 121, 50, 0, 4
|1, 6, 122, 50, 0, 3
|1, 9, 123, 50, 0, 4
|1, 6, 124, 50, 0, 3
|1, 6, 125, 50, 0, 3
|1, 6, 126, 50, 0, 3
|1, 7, 127, 50, 0, 3
|1, 7, 128, 50, 0, 3
|1, 7, 129, 50, 0, 4
|1, 7, 130, 50, 0, 4
|1, 7, 131, 50, 0, 3
|1, 8, 132, 50, 0, 3
|1, 8, 133, 50, 0, 3
|1, 8, 134, 50, 0, 1
|1, 9, 135, 50, 0, 3
|1, 8, 136, 51, 0, 3
|1, 8, 137, 50, 0, 3
|1, 9, 138, 50, 0, 2
|1, 9, 139, 50, 0, 3
|1, 9, 140, 50, 0, 3
|1, 10, 141, 50, 0, 3
|2, 1, 176, 50, 0, 3
|2, 1, 177, 50, 0, 3
|2, 1, 177, 51, 0, 3
|2, 1, 179, 50, 0, 3
|2, 1, 180, 50, 0, 3
|2, 1, 181, 50, 0, 3
|2, 1, 182, 50, 0, 3
|2, 2, 183, 50, 1, 4
|2, 2, 184, 50, 1, 4
|2, 2, 185, 50, 1, 4
|2, 2, 186, 50, 1, 4
|2, 2, 187, 51, 1, 4
|2, 2, 188, 50, 0, 3
|2, 2, 189, 50, 1, 4
|2, 3, 190, 50, 0, 3
|2, 3, 190, 51, 0, 3
|2, 3, 191, 50, 0, 3
|2, 3, 192, 50, 0, 3
|2, 3, 193, 50, 0, 3
|2, 3, 194, 50, 0, 3
|2, 3, 195, 50, 0, 3
|2, 3, 196, 53, 0, 4
|2, 4, 197, 50, 1, 4
|2, 4, 198, 50, 1, 4
|2, 4, 199, 50, 1, 4
|1, 1, 2, 50, 0, 5
|2, 4, 200, 50, 1, 4
|2, 4, 201, 50, 1, 4
|2, 4, 202, 50, 1, 4
|2, 5, 203, 50, 0, 3
|2, 5, 204, 50, 0, 3
|2, 5, 205, 50, 0, 3
|2, 5, 206, 50, 0, 3
|2, 5, 207, 50, 0, 3
|2, 5, 208, 50, 0, 3
|2, 5, 209, 50, 0, 3
|2, 6, 210, 51, 1, 4
|2, 6, 211, 50, 1, 4
|2, 6, 212, 51, 0, 3
|2, 6, 213, 50, 1, 4
|2, 6, 214, 50, 1, 4
|2, 6, 215, 51, 1, 4
|2, 7, 216, 50, 0, 3
|2, 7, 217, 50, 0, 3
|2, 7, 218, 50, 0, 3
|2, 7, 219, 50, 0, 3
|2, 7, 220, 50, 0, 3
|2, 7, 221, 50, 0, 3
|2, 7, 222, 50, 0, 3
|2, 8, 223, 51, 1, 4
|2, 8, 224, 50, 1, 4
|2, 8, 225, 51, 1, 4
|2, 8, 226, 51, 1, 4
|2, 8, 227, 50, 1, 4
|2, 10, 228, 50, 0, 3
|2, 9, 229, 50, 0, 3
|2, 10, 231, 50, 1, 4
|2, 10, 233, 50, 1, 4
|5, 1, 236, 50, 0, 3
|5, 1, 239, 50, 0, 3
|5, 1, 239, 51, 0, 3
|5, 1, 240, 50, 0, 3
|5, 1, 240, 51, 0, 3
|5, 1, 243, 50, 0, 3
|5, 1, 243, 51, 0, 3
|5, 1, 244, 51, 0, 2
|5, 1, 245, 51, 0, 3
|5, 1, 245, 52, 0, 3
|5, 3, 247, 50, 0, 3
|5, 3, 248, 50, 0, 3
|5, 3, 249, 50, 0, 3
|5, 3, 250, 50, 0, 4
|5, 3, 250, 51, 0, 4
|5, 3, 252, 50, 0, 3
|5, 3, 253, 50, 0, 3
|5, 5, 254, 50, 0, 3
|5, 5, 256, 50, 0, 4
|5, 5, 258, 50, 0, 4
|5, 5, 258, 51, 0, 4
|5, 5, 260, 50, 0, 4
|5, 5, 261, 51, 0, 4
|5, 5, 262, 50, 0, 4
|5, 5, 264, 50, 0, 5
|5, 8, 271, 50, 0, 3
|5, 8, 272, 51, 0, 3
|5, 8, 273, 50, 0, 2
|5, 8, 274, 50, 0, 3
|5, 8, 275, 50, 0, 3
|5, 8, 276, 50, 0, 3
|5, 8, 277, 50, 0, 3
|3, 2, 290, 51, 0, 3
|3, 2, 291, 51, 0, 5
|3, 2, 292, 50, 0, 5
|3, 2, 293, 50, 0, 5
|3, 2, 295, 51, 0, 3
|3, 6, 296, 50, 0, 3
|3, 6, 297, 50, 0, 3
|3, 6, 298, 50, 0, 3
|3, 6, 299, 50, 0, 4
|3, 6, 300, 51, 0, 4
|3, 9, 301, 50, 0, 3
|3, 6, 302, 50, 0, 2
|3, 6, 303, 50, 0, 3
|3, 8, 305, 50, 0, 3
|3, 8, 306, 50, 0, 3
|3, 8, 307, 50, 0, 3
|3, 8, 308, 50, 0, 3
|3, 8, 309, 50, 0, 4
|3, 8, 310, 50, 0, 6
|3, 8, 311, 50, 0, 3
|3, 8, 312, 50, 0, 2
|3, 4, 313, 51, 0, 5
|3, 4, 314, 50, 0, 3
|3, 4, 315, 52, 0, 4
|4, 2, 317, 50, 0, 6
|4, 2, 318, 50, 0, 3
|4, 2, 319, 50, 0, 3
|4, 2, 320, 50, 0, 2
|4, 2, 321, 50, 0, 4
|4, 2, 322, 50, 0, 3
|6, 1, 382, 51, 0, 3
|6, 1, 383, 50, 0, 3
|6, 1, 384, 51, 0, 3
|6, 1, 385, 52, 0, 3
|6, 1, 385, 53, 0, 3
|6, 1, 387, 51, 0, 3
|6, 1, 388, 51, 0, 3
|6, 3, 390, 51, 0, 3
|6, 3, 391, 50, 0, 3
|6, 3, 392, 50, 0, 3
|6, 3, 393, 50, 0, 3
|6, 3, 394, 51, 0, 3
|6, 3, 395, 54, 0, 4
|6, 5, 396, 50, 0, 3
|6, 5, 397, 50, 0, 3
|6, 5, 398, 50, 0, 3
|6, 5, 399, 50, 0, 3
|6, 5, 400, 50, 0, 3
|6, 6, 401, 51, 1, 4
|6, 5, 402, 52, 0, 3
|6, 7, 403, 50, 0, 3
|6, 7, 404, 50, 0, 3
|6, 7, 405, 50, 0, 3
|6, 7, 406, 50, 0, 3
|6, 7, 407, 50, 0, 3
|6, 7, 408, 50, 0, 3
|6, 7, 409, 50, 0, 3
|6, 2, 410, 51, 1, 4
|6, 2, 411, 51, 1, 4
|6, 2, 412, 50, 1, 4
|6, 2, 413, 52, 0, 3
|6, 2, 414, 51, 1, 4
|6, 2, 415, 51, 1, 4
|6, 4, 416, 50, 1, 4
|6, 4, 417, 50, 1, 4
|6, 4, 418, 50, 1, 4
|6, 4, 419, 50, 1, 4
|6, 4, 420, 50, 1, 4
|6, 4, 421, 51, 1, 4
|6, 6, 422, 50, 1, 4
|6, 8, 423, 51, 1, 4
|6, 6, 424, 50, 1, 4
|6, 5, 425, 50, 0, 3
|6, 6, 426, 51, 1, 4
|6, 6, 427, 53, 0, 3
|6, 8, 428, 51, 1, 4
|6, 8, 429, 51, 1, 4
|6, 8, 430, 51, 1, 4
|6, 10, 431, 50, 1, 4
|6, 8, 432, 51, 1, 4
|6, 8, 433, 50, 1, 4
|6, 10, 434, 50, 1, 4
|6, 10, 435, 50, 0, 3
|6, 10, 435, 51, 0, 3
|6, 10, 437, 50, 1, 4
|6, 10, 438, 50, 1, 4
|6, 10, 439, 51, 1, 4
|9, 4, 444, 50, 1, 4
|9, 4, 445, 50, 1, 4
|9, 4, 446, 50, 1, 4
|9, 4, 447, 50, 1, 4
|9, 6, 448, 50, 1, 4
|9, 6, 449, 50, 1, 4
|9, 6, 450, 50, 1, 4
|9, 6, 451, 50, 1, 4
|8, 5, 452, 50, 0, 3
|8, 5, 453, 50, 0, 4
|8, 5, 454, 50, 0, 3
|8, 5, 455, 50, 0, 4
|8, 5, 456, 50, 0, 3
|8, 1, 458, 51, 0, 4
|8, 1, 459, 51, 0, 5
|8, 1, 460, 50, 0, 3
|8, 1, 460, 51, 0, 3
|8, 1, 461, 51, 0, 2
|8, 1, 462, 52, 0, 3
|8, 1, 462, 53, 0, 3
|8, 3, 463, 51, 0, 3
|8, 3, 463, 52, 0, 3
|8, 3, 464, 51, 0, 4
|8, 3, 465, 50, 0, 3
|8, 3, 465, 51, 0, 3
|8, 3, 466, 50, 0, 4
|8, 2, 467, 52, 1, 6
|8, 2, 468, 50, 1, 7
|8, 2, 469, 52, 1, 4
|8, 2, 469, 53, 1, 4
|8, 2, 470, 51, 1, 4
|8, 2, 471, 52, 1, 4
|8, 4, 472, 51, 1, 4
|8, 4, 473, 51, 1, 4
|8, 4, 474, 51, 1, 4
|8, 4, 476, 51, 1, 4
|3, 4, 477, 53, 0, 3
|3, 2, 478, 53, 0, 3
|10, 6, 479, 50, 1, 4
|10, 5, 480, 50, 0, 3
|10, 5, 481, 50, 0, 2
|10, 5, 482, 50, 1, 4
|1, 3, 483, 51, 0, 6
|4, 2, 484, 52, 0, 3
|8, 1, 485, 50, 0, 2
|1, 9, 487, 50, 0, 3
|2, 10, 488, 50, 1, 4
|3, 4, 489, 50, 0, 4
|3, 4, 490, 50, 0, 3
|3, 8, 491, 50, 0, 2
|3, 8, 492, 50, 0, 1
|1, 4, 493, 50, 1, 7
|1, 1, 63, 50, 0, 3
|1, 1, 64, 50, 0, 2
|1, 1, 66, 50, 0, 3
|1, 1, 66, 51, 0, 3
|1, 1, 67, 50, 0, 3
|1, 1, 68, 51, 0, 3
|1, 1, 69, 50, 0, 2
|1, 1, 70, 50, 0, 4
|1, 2, 72, 50, 0, 5
|1, 2, 73, 50, 0, 4
|1, 2, 74, 50, 0, 3
|1, 2, 74, 51, 0, 3
|1, 2, 76, 50, 0, 4
|1, 2, 77, 50, 0, 3
|1, 2, 78, 50, 0, 3
|1, 2, 786, 50, 0, 5
|1, 3, 80, 50, 0, 3
|1, 3, 80, 51, 0, 3
|1, 3, 81, 50, 0, 4
|1, 3, 82, 50, 0, 5
|1, 3, 83, 50, 0, 4
|1, 3, 84, 50, 0, 3
|];
Da=[{1, 36, 273},
{2, 15, 34, 222, 283},
{3, 4, 13, 14, 255},
{5, 6},
{7, 231, 242, 276},
{8, 47, 186, 194, 278},
{9},
{10, 35, 271},
{11, 233, 234, 236, 237, 247, 282},
{12, 136},
{16, 225},
{17, 238, 258},
{18, 246},
{19, 29},
{20, 59, 170, 190},
{21, 32},
{22, 232, 235},
{23, 27, 281},
{24, 223, 224, 245},
{25, 30, 221, 248},
{26, 228, 229, 267, 268},
{28, 31},
{33},
{37, 38, 130, 241},
{39, 67, 80},
{40, 161},
{41, 158, 185},
{42, 70},
{43, 156, 183},
{44, 58, 79, 198},
{45, 102, 103, 110, 249, 250, 279},
{46, 78, 88},
{48, 56, 63, 167, 188, 204},
{49, 162},
{50, 51, 184, 199},
{52, 84},
{53, 104, 117, 119, 120, 286},
{54, 166},
{55, 172},
{57, 62, 118},
{60, 85},
{61, 127, 254},
{64, 163},
{65, 72},
{66, 165},
{68, 81, 86},
{69, 89},
{71, 92},
{73, 180, 205},
{74, 148, 256},
{75, 259},
{76, 82},
{77, 95, 96},
{83, 175},
{87, 200},
{90},
{91},
{93},
{94},
{97, 98},
{99, 100, 106},
{101, 126, 137, 244, 265},
{105, 112},
{107, 108, 122},
{109},
{111},
{113, 114, 121},
{115, 116},
{123},
{124},
{125},
{128, 147},
{129},
{131, 251, 252, 253, 257},
{132},
{133, 144, 145},
{134, 135, 142},
{138, 230, 266},
{139, 140, 146, 262, 263},
{141},
{143},
{149, 226, 272, 274, 285},
{150, 155},
{151},
{152},
{153},
{154},
{157, 192, 207},
{159, 160},
{164, 181},
{168, 173, 191, 264},
{169, 189, 212},
{171, 176, 196, 202},
{174, 179, 211},
{177, 201},
{178, 195, 206},
{182, 203},
{187, 193},
{197, 208, 209, 210},
{213, 216, 218, 219},
{214, 217},
{215},
{220},
{227, 239, 284},
{240, 243, 269, 270, 277},
{260, 261, 280},
{275}
];
Ad=[1, 2, 3, 3, 4, 4, 5, 6, 7, 8, 9, 10, 3, 3, 2, 11, 12, 13, 14, 15, 16, 17, 18, 19, 20, 21, 18, 22, 14, 20, 22, 16, 23, 2, 8, 1, 24, 24, 25, 26, 27, 28, 29, 30, 31, 32, 6, 33, 34, 35, 35, 36, 37, 38, 39, 33, 40, 30, 15, 41, 42, 40, 33, 43, 44, 45, 25, 46, 47, 28, 48, 44, 49, 50, 51, 52, 53, 32, 30, 25, 46, 52, 54, 36, 41, 46, 55, 32, 47, 56, 57, 48, 58, 59, 53, 53, 60, 60, 61, 61, 62, 31, 31, 37, 63, 61, 64, 64, 65, 31, 66, 63, 67, 67, 68, 68, 37, 40, 37, 37, 67, 64, 69, 70, 71, 62, 42, 72, 73, 24, 74, 75, 76, 77, 77, 10, 62, 78, 79, 79, 80, 77, 81, 76, 76, 79, 72, 50, 82, 83, 84, 85, 86, 87, 83, 29, 88, 27, 89, 89, 26, 34, 43, 90, 45, 38, 33, 91, 92, 15, 93, 39, 91, 94, 54, 93, 95, 96, 94, 49, 90, 97, 29, 35, 27, 6, 98, 33, 92, 15, 91, 88, 98, 6, 96, 93, 99, 30, 35, 55, 95, 93, 97, 33, 49, 96, 88, 99, 99, 99, 94, 92, 100, 101, 102, 100, 101, 100, 100, 103, 20, 2, 19, 19, 11, 82, 104, 21, 21, 78, 5, 17, 9, 9, 17, 9, 9, 12, 104, 105, 24, 5, 105, 62, 19, 13, 9, 20, 31, 31, 74, 74, 74, 42, 3, 50, 74, 12, 51, 106, 106, 79, 79, 91, 62, 78, 21, 21, 105, 105, 8, 82, 1, 82, 107, 5, 105, 6, 31, 106, 18, 9, 2, 104, 82, 37];
D=[|false, false, false, true , false, false, false, false, false, false, false, false, false, false, false, false, false, false, false, false, false, false, false, false, false, false, false, false, false, false, false, false, false, false, false, false, false, false, false, false, false, false, false, false, false, false, false, false, false, false, false, false, false, false, false, false, false, false, false, false, false, false, false, false, false, false, false, false, false, false, false, false, false, false, false, false, false, false, false, false, false, false, false, false, false, false, false, false, false, false, false, false, false, false, false, false, false, false, false, false, false, false, false, false, false, false, false
|false, false, false, true , true , true , false, false, true , false, false, false, false, false, false, false, true , false, false, true , false, false, false, false, false, false, false, false, false, false, false, true , true , false, false, false, false, false, false, true , false, true , false, false, false, true , false, false, false, true , true , false, false, false, false, false, false, false, false, false, false, true , false, false, false, false, true , false, false, false, false, false, false, true , false, false, false, true , false, false, true , true , false, false, false, false, false, false, false, false, false, false, false, false, true , false, true , false, false, false, false, false, false, false, false, true , false
|false, false, false, true , true , true , false, false, true , false, false, false, false, false, false, false, true , false, false, true , false, false, false, false, false, false, false, false, false, false, false, true , true , false, false, false, false, false, false, true , false, true , false, false, false, true , false, false, false, true , true , false, false, false, false, false, false, false, false, false, false, true , false, false, false, false, true , false, false, false, false, false, false, true , false, false, false, true , false, false, true , true , false, false, false, false, false, false, false, false, false, false, false, false, true , false, true , false, false, false, false, false, false, false, false, true , false
|false, false, false, true , true , true , false, false, true , false, false, false, false, false, false, false, true , false, false, true , false, false, false, false, false, false, false, false, true , false, false, true , true , false, false, false, false, false, false, true , false, true , false, false, false, true , false, false, false, true , true , false, false, false, false, false, false, false, false, false, false, true , false, false, false, false, true , false, false, false, false, false, false, true , false, false, false, true , false, false, true , true , false, false, false, false, false, false, false, false, false, false, false, false, true , false, true , false, false, false, false, false, false, false, false, true , false
|false, false, false, true , true , false, false, false, true , false, false, false, false, false, false, false, true , false, false, true , false, false, false, false, false, false, false, true , true , false, false, true , true , false, false, false, false, false, false, false, false, true , false, false, false, false, false, false, false, false, true , false, false, false, false, false, false, false, false, false, false, false, false, false, false, false, false, false, false, false, false, false, false, true , false, false, false, true , false, false, true , true , false, false, true , false, false, false, false, false, false, false, false, false, false, false, true , false, false, false, false, false, false, false, false, true , false
|false, false, false, true , true , false, false, false, true , false, false, false, false, false, false, false, true , false, false, true , false, false, false, false, false, false, false, true , true , false, false, true , true , false, false, false, false, false, false, false, false, true , false, false, false, false, false, false, false, false, true , false, false, false, false, false, false, false, false, false, false, false, false, false, false, false, false, false, false, false, false, false, false, true , false, false, false, true , false, false, true , true , false, false, true , false, false, false, false, false, false, false, false, false, false, false, true , false, false, false, false, false, false, false, false, true , false
|false, false, false, true , true , false, false, false, true , false, false, false, false, false, false, false, true , false, false, true , false, false, false, false, false, false, false, true , true , false, false, true , true , false, false, false, false, false, false, false, false, true , false, false, false, false, false, false, false, false, true , false, false, false, false, false, false, false, false, false, false, false, false, false, false, false, false, false, false, false, false, false, false, true , false, false, false, true , false, false, true , true , false, false, true , false, false, false, false, false, false, false, false, false, false, false, true , false, false, false, false, false, false, false, false, true , false
|false, false, true , true , true , false, false, false, false, false, false, false, false, false, false, false, false, false, false, false, false, false, false, false, false, false, false, false, false, false, false, true , false, false, false, false, false, false, false, true , false, false, false, false, false, false, false, false, false, false, false, false, false, false, false, false, false, false, false, false, false, false, false, false, false, false, false, false, false, false, false, false, false, false, false, false, false, false, false, false, false, false, false, false, false, false, false, false, false, false, false, false, false, false, false, false, false, false, false, false, false, false, false, false, false, true , true 
|false, false, true , true , true , false, false, false, false, false, false, false, false, false, false, false, false, false, false, false, false, false, false, false, false, false, false, false, true , false, false, true , false, false, false, false, false, false, false, true , false, true , false, false, false, true , false, false, false, false, false, false, false, false, false, false, false, false, false, false, false, false, false, false, false, false, false, false, false, false, false, false, false, true , false, false, false, false, false, false, false, false, false, false, true , false, false, false, false, false, false, false, false, false, false, false, false, false, false, true , false, false, false, false, false, true , true 
|false, false, true , true , true , false, false, false, false, false, false, false, false, true , false, false, false, false, false, true , false, false, false, false, false, false, false, false, true , true , false, true , false, false, false, false, false, false, false, true , false, true , false, false, false, true , false, true , false, true , false, false, false, false, false, false, false, false, false, false, false, false, false, false, false, false, true , false, false, false, false, false, false, true , false, false, false, false, false, false, false, false, false, false, true , false, false, false, false, false, false, false, false, false, false, false, false, false, false, true , false, false, false, false, false, true , true 
|false, false, false, true , true , false, false, false, false, false, false, false, false, true , false, false, false, false, false, true , false, false, false, false, false, false, false, false, true , true , false, true , false, false, false, false, false, false, false, false, false, true , false, false, false, true , false, true , false, true , false, false, false, false, false, false, false, false, false, false, false, false, false, false, false, false, true , false, false, false, false, false, false, true , false, false, false, false, false, false, false, false, false, false, true , false, false, false, false, false, false, false, false, false, false, false, false, false, false, true , false, false, false, false, false, true , true 
|false, false, false, true , true , false, false, false, false, false, false, false, false, true , false, false, false, false, false, true , false, false, false, false, false, false, false, false, true , true , false, true , false, false, false, false, false, false, false, false, false, false, false, false, false, false, false, true , false, true , false, false, false, false, false, false, false, false, false, false, false, false, false, false, false, false, true , false, false, false, false, false, false, false, false, false, false, false, false, false, false, false, false, false, false, false, false, false, false, false, false, false, false, false, false, false, false, false, false, true , false, false, false, false, false, true , false
|false, false, true , true , true , true , false, false, true , false, false, false, true , false, false, false, true , false, false, true , false, false, false, false, false, false, false, false, true , true , false, true , true , false, false, false, false, false, false, false, true , true , false, false, false, false, false, false, false, true , false, true , false, false, false, false, false, false, false, false, false, true , false, false, false, false, false, false, false, false, false, false, false, true , false, false, false, false, false, false, false, true , false, true , false, false, false, true , true , false, false, false, false, true , true , false, false, false, false, true , true , false, false, true , false, true , false
|false, false, true , true , true , true , false, false, true , false, false, false, true , false, false, false, true , false, false, true , false, false, false, false, false, false, false, false, true , true , false, true , true , false, false, false, false, false, false, false, true , true , false, false, false, false, false, false, false, true , false, true , false, false, false, false, false, false, false, false, false, true , false, false, false, false, false, false, false, false, false, false, false, true , false, false, false, false, false, false, false, true , false, true , false, false, false, true , true , false, false, false, false, true , true , false, false, false, false, true , true , false, false, true , false, true , false
|false, false, true , true , true , true , false, false, true , false, false, false, true , false, false, false, true , false, false, true , false, false, false, false, false, false, false, false, true , true , false, true , true , false, false, false, false, false, false, false, true , true , false, false, false, false, false, false, false, true , false, true , false, false, false, false, false, false, false, false, false, true , false, false, false, false, false, false, false, false, false, false, false, true , false, false, false, false, false, false, false, true , false, true , false, false, false, true , true , false, false, false, false, true , true , false, false, false, false, true , true , false, false, true , false, true , false
|false, false, true , true , true , true , false, false, true , false, false, false, true , false, false, false, true , false, false, true , false, false, false, false, false, false, false, false, true , true , false, true , true , false, false, false, false, false, false, false, true , true , false, false, false, false, false, false, false, true , false, true , false, false, false, false, false, false, false, false, false, true , false, false, false, false, false, false, false, false, false, false, false, true , false, false, false, false, false, false, false, true , false, true , false, false, false, true , true , false, false, false, false, true , true , false, false, false, false, true , true , false, false, true , false, true , false
|false, false, false, true , false, false, false, false, false, false, false, false, false, false, false, false, false, false, false, false, false, false, false, false, false, false, false, false, false, false, false, false, false, false, false, false, false, false, false, false, false, false, false, false, false, false, false, false, false, false, false, false, false, false, false, false, false, false, false, false, false, false, false, false, false, false, false, false, false, false, false, false, false, false, false, false, false, false, false, false, false, false, false, false, false, false, false, false, false, false, false, false, false, false, false, false, false, false, false, false, false, false, false, false, false, false, false
|false, true , false, true , true , true , false, true , false, false, false, true , false, false, false, false, true , false, false, false, true , false, false, false, false, true , false, false, false, true , true , true , false, true , false, true , false, false, true , true , false, true , true , false, false, false, false, false, true , false, false, false, false, false, true , false, true , false, false, false, false, true , true , true , false, true , true , false, false, false, false, true , false, true , false, true , false, true , true , false, false, false, false, false, false, true , false, false, false, false, true , false, false, false, false, false, false, false, false, false, false, false, false, false, true , true , false
|false, true , false, true , true , true , false, true , false, false, false, true , false, false, false, false, true , false, false, false, true , false, false, false, false, true , false, false, false, true , true , true , false, true , false, true , false, false, true , true , false, true , true , false, false, false, false, false, true , false, false, false, false, false, true , false, true , false, false, false, false, true , true , true , false, true , true , false, false, false, false, true , false, true , false, true , false, true , true , false, false, false, false, false, false, true , false, false, false, false, true , false, false, false, false, false, false, false, false, false, false, false, false, false, true , true , false
|true , true , false, true , true , true , false, true , false, false, false, true , false, false, false, false, true , false, false, false, true , false, false, true , true , true , true , false, true , true , true , true , false, true , false, true , true , true , true , true , false, true , true , false, false, false, false, false, true , false, false, false, false, false, true , false, true , false, false, true , false, true , true , true , false, true , true , false, false, false, false, true , false, true , false, true , false, true , true , false, false, false, false, false, false, true , false, true , false, false, true , false, false, false, false, false, false, false, false, false, false, false, false, false, true , true , false
|true , true , false, true , true , false, false, true , false, false, false, true , false, false, false, false, true , false, false, false, true , false, false, true , true , false, true , true , true , true , true , true , false, false, false, false, true , true , true , false, false, true , true , false, false, false, false, false, false, false, false, false, false, false, false, false, true , false, false, true , false, false, true , true , false, true , true , false, false, false, false, true , false, true , false, true , false, false, true , true , false, false, false, false, false, false, false, true , false, false, false, false, false, false, false, false, false, false, false, false, false, false, false, false, true , true , false
|true , true , false, true , true , false, false, true , false, false, false, true , false, false, false, false, true , false, false, false, true , false, false, true , true , false, true , true , true , true , true , true , false, false, false, false, true , true , true , false, false, true , true , false, false, false, false, false, false, false, false, false, false, false, false, false, true , false, false, true , false, false, true , true , false, true , true , false, false, false, false, true , false, true , false, true , false, false, true , true , false, false, false, false, false, false, false, true , false, false, false, false, false, false, false, false, false, false, false, false, false, false, false, false, true , true , false
|false, true , false, true , true , false, false, true , false, false, false, true , false, false, false, false, true , false, false, false, true , false, false, true , false, false, false, true , true , true , true , true , false, false, false, false, false, true , true , false, false, true , true , false, false, false, false, false, false, false, false, false, false, false, false, false, true , false, false, false, false, false, true , true , false, true , true , false, false, false, false, false, false, true , false, true , false, false, true , true , false, false, false, false, false, false, false, false, false, false, false, false, false, false, false, false, false, false, false, false, false, false, false, false, true , true , false
|true , false, true , true , true , false, false, true , false, false, false, false, false, false, false, false, false, false, false, false, false, false, false, false, false, false, false, false, false, false, false, true , false, false, true , false, false, false, false, false, false, false, true , false, false, false, false, false, false, false, false, false, false, false, false, false, false, false, false, false, false, false, false, true , false, false, false, false, false, false, false, false, false, false, false, false, false, false, false, false, false, true , false, false, false, false, false, false, false, false, false, false, false, false, false, false, false, false, false, false, false, false, false, false, false, true , false
|true , false, true , true , true , false, true , true , false, false, true , false, false, false, false, false, false, false, true , false, false, true , true , false, false, false, false, false, true , false, false, true , false, false, true , false, true , false, false, false, false, true , true , false, false, false, true , false, false, true , false, true , false, false, false, false, false, false, false, true , false, false, true , true , true , true , true , false, false, false, false, false, false, true , false, true , false, false, true , false, false, true , false, false, false, false, false, true , false, false, false, false, false, false, false, false, false, false, false, true , false, false, false, false, true , true , false
|true , false, true , true , true , false, true , true , false, true , true , false, false, true , false, false, false, false, true , false, false, true , true , true , false, false, false, false, true , false, false, true , false, false, true , false, true , false, false, false, false, true , true , false, false, false, true , true , true , true , false, true , false, false, false, false, false, false, false, true , false, false, true , true , true , true , true , false, false, false, false, false, false, true , true , true , false, false, true , false, false, true , false, false, false, false, false, true , false, false, false, false, false, false, false, true , false, false, false, true , false, false, false, false, true , true , false
|true , false, false, true , true , false, true , true , false, true , true , false, false, true , false, false, false, false, true , false, false, true , true , true , false, false, false, false, true , false, false, true , false, false, false, false, true , false, false, false, false, true , true , false, false, false, true , true , true , true , false, true , false, false, false, false, false, false, false, true , false, false, true , true , true , true , true , false, false, false, false, false, false, true , true , true , false, false, true , false, false, true , false, false, false, false, false, true , false, false, false, false, false, false, false, true , false, false, false, true , false, false, false, false, true , true , false
|false, false, false, true , true , false, false, true , false, true , false, false, false, true , false, false, false, false, true , false, false, false, false, true , false, false, false, false, true , false, false, true , false, false, false, false, false, false, false, false, false, false, true , false, false, false, false, true , true , true , false, true , false, false, false, false, false, false, false, false, false, false, false, true , false, false, false, false, false, false, false, false, false, false, true , false, false, false, false, false, false, true , false, false, false, false, false, false, false, false, false, false, false, false, false, true , false, false, false, true , false, false, false, false, false, true , false
|false, false, true , true , true , true , false, false, false, false, false, false, true , false, false, false, true , false, false, false, false, false, false, false, false, true , true , false, true , true , true , true , false, false, false, false, false, false, false, true , true , false, true , true , false, true , true , true , true , false, false, true , false, false, false, false, false, false, false, false, false, true , false, false, false, false, false, false, false, false, false, false, false, false, false, false, false, true , false, false, false, true , false, false, false, false, false, true , true , false, true , false, true , false, false, true , false, false, false, true , true , false, false, false, true , true , false
|false, false, true , true , true , true , false, false, false, false, false, false, true , false, false, false, true , false, false, false, false, false, false, false, false, true , true , false, true , true , true , true , false, false, false, false, false, false, false, true , true , false, true , true , false, true , true , true , true , false, false, true , false, false, false, false, false, false, false, false, false, true , false, false, false, false, false, false, false, false, false, false, false, false, false, false, false, true , false, false, false, true , false, false, false, false, false, true , true , false, true , false, true , false, false, true , false, false, false, true , true , false, false, false, true , true , false
|false, false, true , true , true , true , false, false, false, false, false, false, true , false, false, false, true , false, false, false, false, false, false, false, false, true , true , false, true , true , true , true , false, false, false, false, false, false, false, true , true , false, true , true , false, true , true , true , true , false, false, true , false, false, false, false, false, false, false, false, false, true , false, false, false, false, false, false, false, false, false, false, false, false, false, false, false, true , false, false, false, true , false, false, false, false, false, true , true , false, true , false, true , false, false, true , false, false, false, true , true , false, false, false, true , true , false
|false, false, true , true , true , true , false, false, false, false, false, false, true , false, false, false, true , false, false, false, false, false, false, false, false, true , true , false, true , true , true , true , false, false, false, false, false, false, false, true , true , false, true , true , false, true , true , true , true , false, false, true , false, false, false, false, false, false, false, false, false, true , false, false, false, false, false, false, false, false, false, false, false, false, false, false, false, true , false, false, false, true , false, false, false, false, false, true , true , false, true , false, true , false, false, true , false, false, false, true , true , false, false, false, true , true , false
|false, false, false, true , false, false, false, false, false, false, false, false, false, false, false, false, false, false, false, false, false, false, false, false, false, false, false, false, false, false, false, false, false, false, false, false, false, false, false, false, false, false, false, false, false, false, false, false, false, false, false, false, false, false, false, false, false, false, false, false, false, false, false, false, false, false, false, false, false, false, false, false, false, false, false, false, false, false, false, false, false, false, false, false, false, false, false, false, false, false, false, false, false, false, false, false, false, false, false, false, false, false, false, false, false, false, false
|false, true , false, true , false, true , false, true , false, false, false, true , false, false, true , false, false, true , false, false, false, false, false, false, false, false, false, false, false, false, true , true , true , false, false, false, false, false, true , true , false, false, true , false, false, false, false, false, true , false, false, false, true , false, true , false, true , false, false, false, false, true , false, true , false, true , true , false, false, false, false, false, false, false, false, true , false, true , false, false, false, true , true , false, false, false, false, false, false, false, true , false, false, false, false, false, false, false, false, true , false, false, false, true , true , true , false
|false, true , false, true , false, true , false, true , false, false, false, true , false, false, true , false, false, true , false, false, false, false, false, false, false, false, false, false, false, false, true , true , true , false, false, false, false, false, true , true , false, false, true , false, false, false, false, false, true , false, false, false, true , false, true , false, true , false, false, false, false, true , false, true , false, true , true , false, false, false, false, false, false, false, false, true , false, true , false, false, false, true , true , false, false, false, false, false, false, false, true , false, false, false, false, false, false, false, false, true , false, false, false, true , true , true , false
|false, true , false, true , false, true , false, true , false, false, false, true , false, false, true , false, false, true , false, false, false, false, false, true , true , false, true , false, true , false, true , true , true , true , false, false, true , true , true , true , false, false, true , true , false, false, false, false, true , false, false, false, true , false, true , false, true , false, false, false, false, true , false, true , false, true , true , false, false, false, false, false, false, false, false, true , false, true , false, false, false, true , true , false, false, false, false, true , false, false, true , false, true , false, false, false, false, false, false, true , false, false, false, true , true , true , false
|true , true , false, true , false, false, false, true , false, false, false, true , false, false, true , false, false, false, false, false, false, false, false, true , true , false, true , false, true , false, true , true , true , true , true , false, true , true , true , false, false, false, true , true , false, false, false, false, false, false, false, false, true , false, false, false, true , false, false, false, false, false, false, true , false, true , true , false, false, false, false, false, false, false, false, true , false, false, false, false, false, true , false, false, false, false, false, true , false, false, false, false, true , false, false, false, false, false, false, true , false, false, false, true , true , true , false
|true , true , false, true , false, false, false, true , false, false, false, true , false, false, true , false, false, false, false, false, false, false, false, true , true , false, true , false, true , false, true , true , true , true , true , false, true , true , true , false, false, false, true , true , false, false, false, false, false, false, false, false, true , false, false, false, true , false, false, false, false, false, false, true , false, true , true , false, false, false, false, false, false, false, false, true , false, false, false, false, false, true , false, false, false, false, false, true , false, false, false, false, true , false, false, false, false, false, false, true , false, false, false, true , true , true , false
|true , false, false, true , false, false, false, true , false, false, false, true , false, false, true , false, false, false, false, false, false, false, false, true , false, false, false, false, true , false, true , true , true , false, true , false, false, true , true , false, false, false, true , false, false, false, false, false, false, false, false, false, true , false, false, false, true , false, false, false, false, false, false, true , false, true , false, false, false, false, false, false, false, false, false, true , false, false, false, false, false, false, false, false, false, false, false, false, false, false, false, false, false, false, false, false, false, false, false, true , false, false, false, true , true , true , false
|false, false, true , true , false, false, false, true , false, false, false, false, false, false, false, false, false, false, false, false, false, false, false, false, false, false, true , false, false, false, false, true , false, false, false, false, false, true , false, false, false, false, true , false, false, false, false, false, false, false, false, false, true , false, false, false, false, false, false, false, false, false, false, false, false, false, false, false, false, false, false, false, false, false, false, false, false, false, false, false, false, false, false, false, false, false, false, false, false, false, false, false, false, false, false, false, false, false, false, false, false, false, false, false, false, true , false
|true , false, true , true , false, false, false, true , false, false, false, false, false, false, false, false, false, false, false, false, false, false, false, false, false, false, true , false, true , false, false, true , false, false, false, false, true , true , false, false, false, false, true , false, false, false, false, false, false, false, false, false, true , false, false, false, false, false, false, false, false, false, false, true , false, true , true , false, false, false, false, true , false, false, false, true , false, false, false, false, false, false, false, false, false, false, false, true , false, false, false, false, true , false, false, false, false, false, false, false, false, false, false, false, true , true , false
|true , false, true , true , false, false, true , true , false, false, false, false, true , true , false, true , false, false, false, false, true , true , true , true , false, false, true , false, true , true , true , true , false, false, true , false, true , true , false, false, false, false, true , false, true , false, false, true , true , false, false, false, true , false, false, false, false, true , false, false, false, false, false, true , false, true , true , false, false, false, false, true , false, false, true , true , false, false, true , false, false, false, false, false, false, false, false, true , false, false, false, false, true , false, false, true , false, false, false, false, false, false, false, false, true , true , false
|true , false, false, true , false, false, true , true , false, false, false, false, true , true , false, true , false, false, false, false, true , true , true , true , false, false, true , false, true , true , true , true , false, false, true , false, true , true , false, false, false, false, true , false, true , false, false, true , true , false, false, false, true , false, false, false, false, true , false, false, false, false, false, true , false, true , true , false, false, false, false, true , false, false, true , true , false, false, true , false, false, false, false, false, false, false, false, true , false, false, false, false, true , false, false, true , false, false, false, false, false, false, false, false, true , true , false
|true , false, false, true , false, false, true , true , false, false, false, false, true , true , false, true , false, false, false, false, true , true , true , true , false, false, false, false, true , true , true , true , false, false, true , false, false, true , false, false, false, false, true , false, true , false, false, true , true , false, false, false, true , false, false, false, false, true , false, false, false, false, false, false, false, false, false, false, false, false, false, false, false, false, true , false, false, false, true , false, false, false, false, false, false, false, false, false, false, false, false, false, true , false, false, true , false, false, false, false, false, false, false, false, false, true , false
|true , false, true , true , true , true , false, false, false, false, false, false, false, false, true , false, true , false, true , false, false, false, false, false, false, true , true , false, true , true , false, true , true , false, true , false, false, false, false, false, true , true , true , false, true , true , false, true , true , false, false, false, true , false, false, false, false, true , false, false, false, true , false, false, false, false, false, false, false, false, false, false, false, false, false, false, false, true , false, false, false, true , false, false, false, false, false, true , true , false, true , true , true , false, false, true , false, false, true , true , true , true , false, false, true , true , false
|true , false, true , true , true , true , false, false, false, false, false, false, false, false, true , false, true , false, true , false, false, false, false, false, false, true , true , false, true , true , false, true , true , false, true , false, false, false, false, false, true , true , true , false, true , true , false, true , true , false, false, false, true , false, false, false, false, true , false, false, false, true , false, false, false, false, false, false, false, false, false, false, false, false, false, false, false, true , false, false, false, true , false, false, false, false, false, true , true , false, true , true , true , false, false, true , false, false, true , true , true , true , false, false, true , true , false
|true , false, true , true , true , true , false, false, false, false, false, false, false, false, true , false, true , false, true , false, false, false, false, false, false, true , true , false, true , true , false, true , true , false, true , false, false, false, false, false, true , true , true , false, true , true , false, true , true , false, false, false, true , false, false, false, false, true , false, false, false, true , false, false, false, false, false, false, false, false, false, false, false, false, false, false, false, true , false, false, false, true , false, false, false, false, false, true , true , false, true , true , true , false, false, true , false, false, true , true , true , true , false, false, true , true , false
|true , false, true , true , true , true , false, false, false, false, false, false, false, false, true , false, true , false, true , false, false, false, false, false, false, true , true , false, true , true , false, true , true , false, true , false, false, false, false, false, true , true , true , false, true , true , false, true , true , false, false, false, true , false, false, false, false, true , false, false, false, true , false, false, false, false, false, false, false, false, false, false, false, false, false, false, false, true , false, false, false, true , false, false, false, false, false, true , true , false, true , true , true , false, false, true , false, false, true , true , true , true , false, false, true , true , false
|false, false, false, true , false, false, false, false, false, false, false, false, false, false, false, false, false, false, false, false, false, false, false, false, false, false, false, false, false, false, false, false, false, false, false, false, false, false, false, false, false, false, false, false, false, false, false, false, false, false, false, false, false, false, false, false, false, false, false, false, false, false, false, false, false, false, false, false, false, false, false, false, false, false, false, false, false, false, false, false, false, false, false, false, false, false, false, false, false, false, false, false, false, false, false, false, false, false, false, false, false, false, false, false, false, false, false
|false, false, true , true , true , true , false, true , true , false, false, true , false, false, false, false, false, false, false, false, false, false, false, false, false, false, false, true , false, false, true , true , true , false, false, true , false, false, false, true , false, true , true , false, false, false, false, false, true , false, true , false, false, false, false, false, true , false, false, false, true , true , false, true , false, true , true , false, false, false, false, false, false, false, false, false, false, false, true , false, false, true , false, false, false, true , true , false, false, false, true , false, false, false, false, false, false, false, false, true , false, false, false, false, true , true , false
|false, false, true , true , true , true , false, true , true , false, false, true , false, false, false, false, false, false, false, false, false, false, false, false, false, false, false, true , false, false, true , true , true , false, false, true , false, false, false, true , false, true , true , false, false, false, false, false, true , false, true , false, false, false, false, false, true , false, false, false, true , true , false, true , false, true , true , false, false, false, false, false, false, false, false, false, false, false, true , false, false, true , false, false, false, true , true , false, false, false, true , false, false, false, false, false, false, false, false, true , false, false, false, false, true , true , false
|false, false, true , true , true , true , false, true , true , false, false, true , false, false, false, false, false, false, false, false, false, false, false, true , true , false, true , true , true , false, true , true , true , false, false, true , true , true , false, true , false, true , true , false, false, false, false, false, true , false, true , false, false, false, false, false, true , false, false, false, true , true , false, true , false, true , true , false, false, false, false, false, false, false, false, false, false, false, true , false, false, true , false, false, false, true , true , false, false, false, true , false, false, false, false, false, false, false, false, true , false, false, false, false, true , true , false
|true , false, false, true , true , false, false, true , true , false, false, true , false, false, false, false, false, false, false, false, true , false, false, true , true , false, true , false, true , false, true , true , true , false, true , false, true , true , false, false, false, true , true , false, false, false, false, false, false, false, true , false, false, true , false, false, true , false, false, false, true , false, false, true , false, true , true , false, false, false, false, false, false, false, false, false, true , false, false, false, false, true , false, false, false, true , true , false, false, true , false, false, false, false, false, false, false, false, false, true , false, false, false, false, true , true , false
|true , false, false, true , true , false, false, true , true , false, false, true , false, false, false, false, false, false, false, false, true , false, false, true , true , false, true , false, true , false, true , true , true , false, true , false, true , true , false, false, false, true , true , false, false, false, false, false, false, false, true , false, false, true , false, false, true , false, false, false, true , false, false, true , false, true , true , false, false, false, false, false, false, false, false, false, true , false, false, false, false, true , false, false, false, true , true , false, false, true , false, false, false, false, false, false, false, false, false, true , false, false, false, false, true , true , false
|true , false, false, true , true , false, false, true , true , false, false, true , false, false, false, false, false, false, false, false, true , false, false, true , false, false, false, false, true , false, true , true , true , false, true , false, false, true , false, false, false, true , true , false, false, false, false, false, false, false, true , false, false, true , false, false, true , false, false, false, true , false, false, false, false, true , true , false, false, false, false, false, false, false, false, false, true , false, false, false, false, true , false, false, false, true , true , false, false, true , false, false, false, false, false, false, false, false, false, true , false, false, false, false, true , true , false
|false, false, true , true , true , false, false, true , false, false, false, false, false, false, false, false, false, false, false, false, false, false, false, false, false, false, false, false, false, false, false, true , false, false, false, false, false, false, false, false, false, false, true , false, false, false, false, false, false, false, true , false, false, false, false, false, false, false, false, false, false, false, false, false, false, false, true , false, false, false, false, false, false, false, false, false, false, false, false, false, false, false, false, false, false, false, false, false, false, false, false, false, false, false, false, false, false, false, false, false, false, false, false, false, false, true , false
|false, false, true , true , true , false, false, true , true , false, false, false, false, false, false, false, false, false, true , false, false, false, false, false, false, false, false, false, true , false, false, true , false, false, false, false, true , false, false, false, false, true , true , false, false, false, false, false, false, false, true , false, false, true , false, false, false, false, false, false, true , false, false, true , false, true , true , false, false, false, false, false, false, false, false, false, false, false, false, false, false, false, false, false, false, false, false, false, false, true , false, false, false, false, false, false, false, false, false, false, false, false, false, false, true , true , false
|false, false, true , true , true , false, false, true , true , true , false, false, false, true , false, true , false, false, true , false, false, false, false, true , false, false, false, false, true , false, false, true , false, true , true , false, true , false, false, false, false, true , true , false, false, false, false, true , true , false, true , false, false, true , false, false, false, false, false, false, true , false, false, true , false, true , true , false, false, false, false, false, false, false, true , false, true , false, false, false, false, false, false, true , false, false, false, false, false, true , false, false, false, false, false, true , false, false, false, false, false, false, false, false, true , true , false
|false, false, false, true , true , false, false, true , true , true , false, false, false, true , false, true , false, false, true , false, false, false, false, true , false, false, false, false, true , false, false, true , false, true , true , false, true , false, false, false, false, true , true , false, false, false, false, true , true , false, true , false, false, true , false, false, false, false, false, false, true , false, false, true , false, true , true , false, false, false, false, false, false, false, true , false, true , false, false, false, false, false, false, true , false, false, false, false, false, true , false, false, false, false, false, true , false, false, false, false, false, false, false, false, true , true , false
|false, false, false, true , true , false, false, true , false, true , false, false, false, true , false, true , false, false, true , false, false, false, false, true , false, false, false, false, true , false, false, true , false, true , true , false, false, false, false, false, false, false, true , false, false, false, false, true , true , false, true , false, false, false, false, false, false, false, false, false, false, false, false, false, false, false, false, false, false, false, false, false, false, false, true , false, true , false, false, false, false, false, false, true , false, false, false, false, false, false, false, false, false, false, false, true , false, false, false, false, false, false, false, false, false, true , false
|false, false, true , true , true , true , false, false, true , false, false, false, true , false, true , false, true , false, false, false, false, false, false, false, false, false, false, true , true , false, true , true , false, false, true , false, false, true , false, true , true , false, true , false, true , true , false, true , true , false, true , false, false, false, true , false, false, false, false, false, false, true , false, false, false, false, false, false, false, false, false, false, false, false, false, false, false, false, false, false, false, false, false, false, false, false, false, false, false, true , true , false, false, false, false, true , false, true , false, true , true , false, false, true , true , true , false
|false, false, true , true , true , true , false, false, true , false, false, false, true , false, true , false, true , false, false, false, false, false, false, false, false, false, false, true , true , false, true , true , false, false, true , false, false, true , false, true , true , false, true , false, true , true , false, true , true , false, true , false, false, false, true , false, false, false, false, false, false, true , false, false, false, false, false, false, false, false, false, false, false, false, false, false, false, false, false, false, false, false, false, false, false, false, false, false, false, true , true , false, false, false, false, true , false, true , false, true , true , false, false, true , true , true , false
|false, false, true , true , true , true , false, false, true , false, false, false, true , false, true , false, true , false, false, false, false, false, false, false, false, false, false, true , true , false, true , true , false, false, true , false, false, true , false, true , true , false, true , false, true , true , false, true , true , false, true , false, false, false, true , false, false, false, false, false, false, true , false, false, false, false, false, false, false, false, false, false, false, false, false, false, false, false, false, false, false, false, false, false, false, false, false, false, false, true , true , false, false, false, false, true , false, true , false, true , true , false, false, true , true , true , false
|false, false, true , true , true , true , false, false, true , false, false, false, true , false, true , false, true , false, false, false, false, false, false, false, false, false, false, true , true , false, true , true , false, false, true , false, false, true , false, true , true , false, true , false, true , true , false, true , true , false, true , false, false, false, true , false, false, false, false, false, false, true , false, false, false, false, false, false, false, false, false, false, false, false, false, false, false, false, false, false, false, false, false, false, false, false, false, false, false, true , true , false, false, false, false, true , false, true , false, true , true , false, false, true , true , true , false
|false, false, false, true , false, false, false, false, false, false, false, false, false, false, false, false, false, false, false, false, false, false, false, false, false, false, false, false, false, false, false, false, false, false, false, false, false, false, false, false, false, false, false, false, false, false, false, false, false, false, false, false, false, false, false, false, false, false, false, false, false, false, false, false, false, false, false, false, false, false, false, false, false, false, false, false, false, false, false, false, false, false, false, false, false, false, false, false, false, false, false, false, false, false, false, false, false, false, false, false, false, false, false, false, false, false, false
|false, false, false, true , true , true , false, true , false, false, false, false, false, false, false, false, false, false, false, false, false, false, false, false, false, true , false, false, false, false, true , true , true , false, false, false, true , false, false, true , false, false, false, false, false, false, false, false, false, false, true , false, false, false, false, false, false, false, false, false, true , false, true , true , false, false, true , true , false, false, false, true , true , false, false, false, false, false, false, false, false, true , true , false, false, false, true , false, false, false, true , false, false, false, false, false, true , false, false, true , false, false, false, false, false, false, false
|false, false, false, true , true , true , false, true , false, false, false, false, false, false, false, false, false, false, false, false, false, false, false, false, false, true , false, false, false, false, true , true , true , false, false, false, true , false, false, true , false, false, false, false, false, false, false, false, false, false, true , false, false, false, false, false, false, false, false, false, true , false, true , true , false, false, true , true , false, false, false, true , true , false, false, false, false, false, false, false, false, true , true , false, false, false, true , false, false, false, true , false, false, false, false, false, true , false, false, true , false, false, false, false, false, false, false
|true , false, false, true , true , true , false, true , false, false, false, false, false, false, false, false, false, false, false, false, false, false, false, false, false, true , false, false, true , false, true , true , true , false, false, false, true , true , false, true , false, false, false, false, true , false, false, false, false, false, true , false, false, false, false, false, false, false, false, false, true , false, true , true , false, false, true , true , false, false, false, true , true , false, false, false, true , false, false, false, false, true , true , false, false, false, true , false, false, false, true , false, false, false, false, false, true , false, false, true , false, false, false, false, true , false, false
|true , false, false, true , false, false, false, true , false, false, false, false, false, false, false, false, false, false, false, false, true , false, false, false, false, false, false, false, true , false, true , true , true , false, false, false, true , true , false, false, false, false, false, false, true , false, false, false, false, false, true , false, false, false, false, false, false, false, false, false, true , false, true , true , false, false, false, true , false, false, false, true , true , false, false, false, true , false, false, false, false, true , true , false, false, false, true , false, false, false, false, false, false, false, false, false, false, false, false, true , false, false, false, false, true , false, false
|true , false, false, true , false, false, false, true , false, false, false, false, false, false, false, false, false, false, false, false, true , false, false, false, false, false, false, false, true , false, true , true , true , false, false, false, true , true , false, false, false, false, false, false, true , false, false, false, false, false, true , false, false, false, false, false, false, false, false, false, true , false, true , true , false, false, false, true , false, false, false, true , true , false, false, false, true , false, false, false, false, true , true , false, false, false, true , false, false, false, false, false, false, false, false, false, false, false, false, true , false, false, false, false, true , false, false
|false, false, false, true , false, false, false, true , false, false, false, false, false, false, false, false, false, false, false, false, true , false, false, false, false, false, false, false, true , false, true , true , true , false, false, false, true , true , false, false, false, false, false, false, false, false, false, false, false, false, true , false, false, false, false, false, false, false, false, false, true , false, true , true , false, false, false, true , false, false, false, true , true , false, false, false, false, false, false, false, false, true , true , false, false, false, true , false, false, false, false, false, false, false, false, false, false, false, false, true , false, false, false, false, false, false, false
|false, false, false, true , false, false, false, false, true , false, false, false, false, false, false, false, false, false, true , false, false, false, false, false, false, false, false, false, false, false, false, true , false, false, false, false, false, true , false, false, false, false, false, false, false, false, false, false, false, false, true , false, false, false, false, false, false, false, false, false, false, false, false, false, false, false, false, false, false, false, false, false, true , false, false, false, false, false, false, false, false, false, false, false, false, false, false, false, false, true , false, false, false, false, false, false, false, false, false, false, false, false, false, false, false, true , false
|false, false, false, true , false, false, false, false, true , false, true , false, false, false, false, false, false, false, true , false, false, true , false, false, false, false, false, false, true , false, false, true , false, false, false, false, false, true , false, false, false, false, false, false, false, false, false, false, false, false, true , false, false, false, false, false, false, false, false, false, false, false, true , true , false, false, false, true , false, false, false, false, true , false, false, false, false, false, false, false, false, false, false, false, false, false, false, false, false, true , false, false, false, false, false, false, false, false, false, false, false, false, false, true , true , true , false
|false, false, false, true , false, false, false, false, true , true , true , false, true , true , false, false, false, false, true , false, false, true , false, false, false, false, false, false, true , false, true , true , false, false, false, false, false, true , false, false, false, false, false, false, false, false, false, false, false, false, true , false, false, false, false, false, false, false, false, false, false, false, true , true , false, false, false, true , false, false, false, false, true , false, false, false, false, false, false, false, false, false, false, true , true , false, false, false, false, true , false, true , false, false, false, false, false, false, false, false, false, false, false, true , true , true , false
|false, false, false, true , false, false, false, false, true , true , true , false, true , true , false, false, false, false, true , false, false, true , false, false, false, false, false, false, true , false, true , true , false, false, false, false, false, true , false, false, false, false, false, false, false, false, false, false, false, false, true , false, false, false, false, false, false, false, false, false, false, false, true , true , false, false, false, true , false, false, false, false, false, false, false, false, false, false, false, false, false, false, false, true , true , false, false, false, false, false, false, true , false, false, false, false, false, false, false, false, false, false, false, true , true , true , false
|false, false, false, true , false, false, false, false, false, true , false, false, true , true , false, false, false, false, false, false, false, false, false, false, false, false, false, false, true , false, true , true , false, false, false, false, false, true , false, false, false, false, false, false, false, false, false, false, false, false, true , false, false, false, false, false, false, false, false, false, false, false, false, false, false, false, false, true , false, false, false, false, false, false, false, false, false, false, false, false, false, false, false, true , true , false, false, false, false, false, false, true , false, false, false, false, false, false, false, false, false, false, false, false, false, true , false
|false, false, true , true , true , true , false, false, true , false, false, false, false, false, false, false, false, false, false, false, false, false, false, true , false, false, false, true , true , false, false, true , true , false, false, false, false, true , false, true , true , false, false, false, false, false, true , false, false, false, true , false, false, false, false, false, false, false, false, false, false, false, false, false, false, false, false, false, false, false, false, false, false, false, false, false, false, false, false, false, false, false, false, true , false, false, false, false, false, false, true , true , false, true , false, false, true , true , true , false, false, false, true , true , true , true , false
|false, false, true , true , true , true , false, false, true , false, false, false, false, false, false, false, false, false, false, false, false, false, false, true , false, false, false, true , true , false, false, true , true , false, false, false, false, true , false, true , true , false, false, false, false, false, true , false, false, false, true , false, false, false, false, false, false, false, false, false, false, false, false, false, false, false, false, false, false, false, false, false, false, false, false, false, false, false, false, false, false, false, false, true , false, false, false, false, false, false, true , true , false, true , false, false, true , true , true , false, false, false, true , true , true , true , false
|false, false, true , true , true , true , false, false, true , false, false, false, false, false, false, false, false, false, false, false, false, false, false, true , false, false, false, true , true , false, false, true , true , false, false, false, false, true , false, true , true , false, false, false, false, false, true , false, false, false, true , false, false, false, false, false, false, false, false, false, false, false, false, false, false, false, false, false, false, false, false, false, false, false, false, false, false, false, false, false, false, false, false, true , false, false, false, false, false, false, true , true , false, true , false, false, true , true , true , false, false, false, true , true , true , true , false
|false, false, true , true , true , true , false, false, true , false, false, false, false, false, false, false, false, false, false, false, false, false, false, true , false, false, false, true , true , false, false, true , true , false, false, false, false, true , false, true , true , false, false, false, false, false, true , false, false, false, true , false, false, false, false, false, false, false, false, false, false, false, false, false, false, false, false, false, false, false, false, false, false, false, false, false, false, false, false, false, false, false, false, true , false, false, false, false, false, false, true , true , false, true , false, false, true , true , true , false, false, false, true , true , true , true , false
|false, false, false, true , false, false, false, false, false, false, false, false, false, false, false, false, false, false, false, false, false, false, false, false, false, false, false, false, false, false, false, false, false, false, false, false, false, false, false, false, false, false, false, false, false, false, false, false, false, false, false, false, false, false, false, false, false, false, false, false, false, false, false, false, false, false, false, false, false, false, false, false, false, false, false, false, false, false, false, false, false, false, false, false, false, false, false, false, false, false, false, false, false, false, false, false, false, false, false, false, false, false, false, false, false, false, false
|false, true , false, true , false, true , false, false, false, true , false, false, false, false, false, false, true , true , false, false, false, false, false, false, false, false, false, false, false, false, false, false, false, false, false, false, false, false, false, true , false, false, false, false, false, false, false, false, false, false, true , false, false, false, false, false, false, false, true , false, false, true , false, false, false, false, false, false, true , true , true , false, false, true , false, false, false, false, false, false, false, false, false, true , false, false, false, false, true , false, false, false, false, false, false, false, false, false, false, true , false, false, false, false, false, true , false
|false, true , false, true , false, true , false, false, false, true , false, false, false, false, false, false, true , true , false, false, false, false, false, false, false, false, false, false, false, false, false, false, false, false, false, false, false, false, false, true , false, false, false, false, false, false, false, false, false, false, true , false, false, false, false, false, false, false, true , false, false, true , false, false, false, false, false, false, true , true , true , false, false, true , false, false, false, false, false, false, false, false, false, true , false, false, false, false, true , false, false, false, false, false, false, false, false, false, false, true , false, false, false, false, false, true , false
|false, true , false, true , false, true , false, false, false, true , false, false, false, true , false, false, true , true , false, false, false, false, false, false, false, false, false, false, false, false, false, false, false, false, false, false, false, false, false, true , false, false, false, false, false, false, false, false, false, false, true , false, false, false, false, false, false, false, true , false, false, true , false, false, false, false, false, false, true , true , true , false, false, true , false, true , false, false, false, false, false, false, false, true , false, false, false, false, true , false, false, false, false, false, false, false, false, false, false, true , false, false, false, false, false, true , false
|false, true , false, true , false, true , false, false, true , true , false, false, false, true , false, false, true , true , false, false, false, false, false, false, false, false, false, false, false, false, false, false, false, false, false, false, false, false, false, true , false, false, false, false, false, false, false, false, false, false, true , false, false, false, false, false, false, false, true , false, false, false, false, false, false, false, false, false, false, false, true , false, false, true , false, true , false, false, false, false, false, false, false, true , false, false, false, false, true , false, false, false, false, false, false, false, false, false, true , true , false, false, false, false, false, true , false
|false, true , false, true , false, true , false, false, true , true , false, false, false, true , false, false, true , true , false, false, false, false, false, false, false, false, false, false, false, false, false, false, false, false, false, false, false, false, false, true , false, false, false, false, false, false, false, false, false, false, true , false, false, false, false, false, false, false, true , false, false, false, false, false, false, false, false, false, false, false, true , false, false, true , false, true , false, false, false, false, false, false, false, true , false, false, false, false, true , false, false, false, false, false, false, false, false, false, true , true , false, false, false, false, false, true , false
|false, true , false, true , false, true , false, false, true , true , false, false, false, false, false, false, true , true , false, false, false, false, false, false, false, false, false, false, false, false, false, false, false, false, false, false, false, false, false, true , false, false, false, false, false, false, false, false, false, false, true , false, false, false, false, false, false, false, true , false, false, false, false, false, false, false, false, false, false, false, true , false, false, true , false, false, false, false, false, false, false, false, false, true , false, false, false, false, true , false, false, false, false, false, false, false, false, false, true , true , false, false, false, false, false, true , false
|false, false, false, true , true , false, false, false, false, false, false, false, false, false, false, false, false, false, false, false, false, false, false, false, false, false, false, false, false, false, false, false, false, false, false, false, false, false, false, false, false, false, false, false, false, false, false, false, false, false, true , false, false, false, false, true , false, false, false, false, false, false, false, false, false, false, false, false, false, false, false, false, false, false, false, true , false, false, false, false, false, false, false, false, false, false, false, false, false, false, false, false, false, false, false, false, false, false, true , true , false, false, false, false, false, true , false
|false, false, false, true , true , true , false, false, false, false, false, false, false, false, false, false, false, false, false, false, false, false, false, false, false, false, false, false, false, false, false, false, false, true , false, false, false, false, false, true , false, false, false, false, false, false, false, false, false, false, true , false, false, false, false, true , false, false, false, false, false, false, false, false, false, false, false, false, false, true , false, false, false, false, false, true , false, false, false, false, false, false, false, false, false, false, false, false, false, false, false, false, false, false, false, false, false, false, true , true , false, false, false, false, false, true , false
|false, false, false, true , true , true , false, false, false, true , false, false, false, false, false, false, false, false, false, false, false, false, false, false, false, false, false, false, false, false, false, false, true , true , false, false, false, false, false, true , false, false, false, false, false, false, false, false, false, true , true , false, false, false, true , true , false, false, false, false, false, false, false, false, false, false, false, false, false, true , false, false, false, false, false, true , false, false, false, false, false, false, false, false, false, false, false, false, false, false, false, false, false, true , false, false, false, false, true , true , false, false, false, false, false, true , false
|false, false, false, true , true , true , false, false, false, true , false, false, false, false, false, false, false, false, false, false, false, false, false, false, false, false, false, false, false, false, false, false, true , true , false, false, false, false, false, true , false, false, false, false, false, false, false, false, false, true , true , false, false, false, true , true , false, false, false, false, false, false, false, false, false, false, false, false, false, true , false, false, false, false, false, false, false, false, false, false, false, false, false, false, false, false, false, false, false, false, false, false, false, true , false, false, false, false, true , true , false, false, false, false, false, true , false
|false, false, false, true , true , false, false, false, false, true , false, false, false, false, false, false, false, false, false, false, false, false, false, false, false, false, false, false, false, false, false, false, true , false, false, false, false, false, false, true , false, false, false, false, false, false, false, false, false, true , true , false, false, false, true , true , false, false, false, false, false, false, false, false, false, false, false, false, false, false, false, false, false, false, false, false, false, false, false, false, false, false, false, false, false, false, false, false, false, false, false, false, false, true , false, false, false, false, true , true , false, false, false, false, false, true , false
|false, false, false, true , true , true , false, false, false, false, false, false, false, false, false, false, true , false, false, false, false, false, false, false, false, false, false, false, false, false, false, false, true , true , false, false, false, false, false, true , false, false, false, false, false, false, false, false, false, false, false, false, false, false, true , false, false, false, false, false, false, true , false, false, false, false, false, false, false, false, false, false, false, false, false, false, false, false, false, false, false, false, false, false, false, false, false, false, false, false, false, false, false, true , false, false, false, false, false, true , false, false, false, false, false, true , false
|false, false, false, true , true , true , false, false, false, false, false, false, false, false, false, false, true , false, false, false, false, false, false, false, false, false, false, false, false, false, false, false, true , true , false, false, false, false, false, true , false, false, false, false, false, false, false, false, false, false, false, false, false, false, true , false, false, false, false, false, false, true , false, false, false, false, false, false, false, false, false, false, false, false, false, false, false, false, false, false, false, false, false, false, false, false, false, false, false, false, false, false, false, true , false, false, false, false, false, true , false, false, false, false, false, true , false
|false, false, false, true , true , true , false, false, false, false, false, false, false, false, false, false, true , false, false, false, false, false, false, false, false, false, false, false, false, false, false, false, true , true , false, false, false, false, false, true , false, false, false, false, false, false, false, false, false, false, false, false, false, false, true , false, false, false, false, false, false, true , false, false, false, false, false, false, false, false, false, false, false, false, false, false, false, false, false, false, false, false, false, false, false, false, false, false, false, false, false, false, false, true , false, false, false, false, false, true , false, false, false, false, false, true , false
|false, false, false, true , true , true , false, false, false, false, false, false, false, false, false, false, true , false, false, false, false, false, false, false, false, false, false, false, false, false, false, false, true , true , false, false, false, false, false, true , false, false, false, false, false, false, false, false, false, false, false, false, false, false, true , false, false, false, false, false, false, true , false, false, false, false, false, false, false, false, false, false, false, false, false, false, false, false, false, false, false, false, false, false, false, false, false, false, false, false, false, false, false, true , false, false, false, false, false, true , false, false, false, false, false, true , false
|];
