% Real instance from AcademiAPP, period 3 (Marzo 2023 - Julio 2023).
% Generated by scripts/academiapp/make_instances.py from the CSV
% snapshot. Enrollment caps: room-proxy (the API does not
% publish them); subject resource requirements are inferred from the
% room the campus used. Both are approximations, not campus data.
% Availability repair: availability. The schedule the campus ran
% violates the model's hard constraints (teacher clashes 17, rooms double-booked 18, same-cohort overlaps 14, hours taught outside the
% declared availability 24), so
% this instance can be unsatisfiable for reasons present in the data.

Recursos=[Coliseo, LabAlimentos, LabElectronica, LabFisica, Ninguno, PlantaAlimentos, SalaSistemas];
sede=30;
salones=30;
Sc=[25,36,36,42,42,44,37,38,25,53,58,54,55,62,30,40,47,46,39,28,30,30,60,25,25,25,60,30,54,62];
Sr=[PlantaAlimentos, Ninguno, Ninguno, Ninguno, Ninguno, Ninguno, Ninguno, Ninguno, Ninguno, Ninguno, Ninguno, Ninguno, Ninguno, Ninguno, Ninguno, Ninguno, Ninguno, Ninguno, Ninguno, SalaSistemas, SalaSistemas, SalaSistemas, Coliseo, LabAlimentos, LabElectronica, LabFisica, Ninguno, Ninguno, SalaSistemas, SalaSistemas];
N=96;
ini=1;
fin=286;
Asig=286;
Ar=[Ninguno,Ninguno,Ninguno,Ninguno,LabFisica,LabFisica,Ninguno,Ninguno,SalaSistemas,SalaSistemas,Ninguno,Ninguno,LabElectronica,LabElectronica,SalaSistemas,Ninguno,SalaSistemas,SalaSistemas,Ninguno,Ninguno,Ninguno,Ninguno,SalaSistemas,Ninguno,Ninguno,Ninguno,SalaSistemas,Ninguno,SalaSistemas,Ninguno,Ninguno,SalaSistemas,Ninguno,Ninguno,SalaSistemas,Ninguno,SalaSistemas,SalaSistemas,Ninguno,SalaSistemas,Ninguno,Ninguno,Ninguno,Ninguno,Ninguno,Ninguno,Ninguno,SalaSistemas,Ninguno,Ninguno,Ninguno,Ninguno,Ninguno,Ninguno,SalaSistemas,SalaSistemas,Ninguno,Ninguno,SalaSistemas,Ninguno,Ninguno,SalaSistemas,SalaSistemas,Ninguno,Ninguno,Ninguno,Ninguno,Ninguno,Ninguno,Ninguno,SalaSistemas,Ninguno,Ninguno,Ninguno,Ninguno,Ninguno,Ninguno,Ninguno,Ninguno,Ninguno,Ninguno,Ninguno,SalaSistemas,Ninguno,Ninguno,Ninguno,Ninguno,Ninguno,SalaSistemas,SalaSistemas,Ninguno,SalaSistemas,Ninguno,Ninguno,Ninguno,Ninguno,Ninguno,Ninguno,Ninguno,Ninguno,Coliseo,SalaSistemas,SalaSistemas,Ninguno,Ninguno,Ninguno,Ninguno,Ninguno,Ninguno,SalaSistemas,Ninguno,Ninguno,Ninguno,Ninguno,Ninguno,Ninguno,Ninguno,Ninguno,Ninguno,Ninguno,Ninguno,Ninguno,Ninguno,Ninguno,Ninguno,Coliseo,SalaSistemas,SalaSistemas,SalaSistemas,SalaSistemas,Ninguno,Ninguno,Ninguno,LabAlimentos,LabAlimentos,Ninguno,Coliseo,Ninguno,Ninguno,Ninguno,Ninguno,Ninguno,Ninguno,LabAlimentos,SalaSistemas,Ninguno,SalaSistemas,Ninguno,Ninguno,Ninguno,Ninguno,SalaSistemas,Ninguno,Ninguno,Ninguno,Ninguno,Ninguno,Ninguno,SalaSistemas,SalaSistemas,SalaSistemas,Ninguno,Ninguno,SalaSistemas,Ninguno,Ninguno,SalaSistemas,Ninguno,Ninguno,SalaSistemas,Ninguno,SalaSistemas,Ninguno,Ninguno,Ninguno,SalaSistemas,Ninguno,Ninguno,SalaSistemas,Ninguno,Ninguno,Ninguno,Ninguno,Ninguno,Ninguno,Ninguno,Ninguno,Ninguno,Ninguno,Ninguno,Ninguno,Ninguno,Ninguno,SalaSistemas,Ninguno,Ninguno,Ninguno,Ninguno,Ninguno,Ninguno,Ninguno,Ninguno,Ninguno,Ninguno,Ninguno,Ninguno,Ninguno,Ninguno,Ninguno,Ninguno,Ninguno,Ninguno,Ninguno,Ninguno,Ninguno,Ninguno,Ninguno,Ninguno,Ninguno,Ninguno,Ninguno,SalaSistemas,Ninguno,Ninguno,Ninguno,Ninguno,Ninguno,SalaSistemas,SalaSistemas,Ninguno,SalaSistemas,SalaSistemas,SalaSistemas,SalaSistemas,SalaSistemas,SalaSistemas,SalaSistemas,SalaSistemas,SalaSistemas,SalaSistemas,SalaSistemas,SalaSistemas,SalaSistemas,Coliseo,SalaSistemas,SalaSistemas,Ninguno,SalaSistemas,SalaSistemas,SalaSistemas,Ninguno,PlantaAlimentos,PlantaAlimentos,Ninguno,SalaSistemas,Ninguno,Ninguno,Ninguno,Ninguno,Ninguno,LabElectronica,LabAlimentos,LabAlimentos,Ninguno,Coliseo,SalaSistemas,SalaSistemas,SalaSistemas,SalaSistemas,SalaSistemas,Ninguno,Ninguno,Ninguno,Ninguno,SalaSistemas,SalaSistemas,Ninguno,Ninguno,Ninguno,Ninguno,SalaSistemas,SalaSistemas,Ninguno,Ninguno,Ninguno,Ninguno];
Ae=[60,58,47,42,25,25,55,55,62,30,62,60,25,25,30,42,28,28,36,36,44,38,30,62,25,53,30,44,30,25,37,30,42,62,30,42,28,28,54,62,37,62,58,36,54,54,36,62,58,38,60,40,44,62,30,54,40,58,30,55,62,62,62,36,44,47,42,42,40,60,28,42,37,60,62,60,36,46,46,62,44,53,62,40,54,60,60,54,54,54,39,30,36,54,38,38,47,58,36,36,60,62,62,42,42,36,36,42,55,62,53,58,25,25,58,54,42,53,36,36,58,42,42,55,55,60,54,54,54,30,36,53,36,25,25,58,60,36,36,36,36,36,36,25,54,36,54,36,58,30,38,54,30,30,30,55,42,42,30,30,62,60,42,62,53,36,62,38,30,30,47,30,60,37,55,62,47,46,28,37,36,55,60,44,44,53,44,44,42,42,58,42,53,54,42,42,42,60,58,62,42,55,42,53,37,42,37,44,40,53,37,58,38,38,38,38,25,25,44,25,25,30,38,62,25,60,60,30,30,62,30,30,30,30,62,30,30,28,62,62,30,30,62,60,54,30,40,54,54,54,40,25,25,40,62,36,62,42,62,42,25,25,25,54,60,62,30,30,28,28,55,62,54,60,30,30,58,60,54,60,30,30,62,58,38,44];
