% Real instance from AcademiAPP, period 4 (Agosto 2023 - Diciembre 2023).
% Generated by scripts/academiapp/make_instances.py from the CSV
% snapshot. Enrollment caps: room-proxy (the API does not
% publish them); subject resource requirements are inferred from the
% room the campus used. Both are approximations, not campus data.
% Availability repair: none. The schedule the campus ran
% violates the model's hard constraints (teacher clashes 3, rooms double-booked 19, same-cohort overlaps 7, hours taught outside the
% declared availability 27), so
% this instance can be unsatisfiable for reasons present in the data.

diurno = {1, 2, 3, 4, 5, 6, 7, 8, 9, 10, 11, 12, 17, 18, 19, 20, 21, 22, 23, 24, 25, 26, 27, 28, 33, 34, 35, 36, 37, 38, 39, 40, 41, 42, 43, 44, 49, 50, 51, 52, 53, 54, 55, 56, 57, 58, 59, 60, 65, 66, 67, 68, 69, 70, 71, 72, 73, 74, 75, 76, 81, 82, 83, 84, 85, 86, 87, 88, 89, 90, 91, 92};
nocturno = {13, 14, 15, 16, 29, 30, 31, 32, 45, 46, 47, 48, 61, 62, 63, 64, 77, 78, 79, 80, 93, 94, 95, 96};
H = 96;
asignaturas = 310;
docentes = 120;

A=[|1, 5, 116, 50, 0, 3
|1, 5, 117, 50, 0, 4
|1, 5, 118, 50, 0, 4
|1, 5, 119, 50, 0, 3
|1, 5, 120, 51, 0, 3
|1, 5, 121, 51, 0, 4
|1, 6, 122, 51, 0, 3
|1, 9, 123, 50, 0, 4
|1, 6, 124, 51, 0, 3
|1, 6, 124, 52, 0, 3
|1, 6, 125, 50, 0, 3
|1, 6, 126, 50, 0, 3
|1, 7, 127, 50, 0, 3
|1, 7, 128, 50, 0, 3
|1, 7, 129, 50, 0, 4
|1, 7, 130, 51, 0, 4
|1, 7, 131, 50, 0, 3
|1, 8, 132, 51, 0, 3
|1, 8, 133, 50, 0, 3
|1, 8, 134, 50, 0, 1
|1, 8, 136, 50, 0, 3
|1, 8, 137, 50, 0, 3
|1, 9, 138, 50, 0, 2
|1, 9, 139, 50, 0, 3
|1, 10, 141, 50, 0, 3
|1, 1, 2, 50, 0, 5
|3, 6, 304, 50, 0, 5
|3, 4, 315, 50, 0, 4
|6, 1, 382, 51, 1, 3
|6, 1, 383, 50, 1, 3
|6, 1, 384, 51, 1, 3
|6, 1, 385, 51, 1, 3
|6, 1, 387, 52, 1, 3
|6, 3, 393, 50, 0, 3
|6, 3, 394, 51, 1, 3
|6, 3, 395, 51, 1, 4
|8, 5, 453, 50, 0, 4
|8, 5, 454, 50, 1, 3
|8, 5, 455, 50, 1, 3
|8, 1, 459, 51, 1, 5
|8, 1, 460, 50, 1, 3
|8, 1, 460, 53, 1, 3
|8, 1, 461, 50, 1, 2
|8, 1, 462, 50, 1, 3
|8, 1, 462, 53, 1, 3
|8, 3, 463, 51, 1, 3
|8, 3, 464, 51, 1, 4
|8, 2, 467, 51, 0, 5
|8, 2, 469, 52, 0, 3
|8, 2, 470, 50, 0, 4
|1, 3, 483, 50, 0, 6
|1, 3, 483, 51, 0, 6
|8, 1, 485, 50, 1, 2
|5, 4, 495, 50, 0, 5
|5, 2, 496, 50, 0, 3
|5, 2, 496, 51, 0, 3
|5, 2, 497, 50, 0, 3
|5, 2, 497, 51, 0, 3
|5, 2, 498, 50, 0, 3
|5, 4, 499, 50, 0, 4
|5, 4, 500, 50, 0, 4
|5, 4, 500, 51, 0, 4
|5, 2, 501, 50, 0, 3
|5, 6, 502, 50, 0, 4
|5, 6, 502, 51, 0, 4
|5, 6, 503, 50, 0, 3
|5, 2, 504, 50, 0, 3
|5, 2, 504, 51, 0, 3
|5, 6, 505, 50, 0, 4
|5, 6, 506, 50, 0, 4
|5, 9, 507, 50, 0, 3
|5, 9, 509, 50, 0, 2
|5, 9, 510, 50, 0, 3
|5, 4, 511, 50, 0, 3
|5, 6, 512, 50, 0, 3
|5, 6, 512, 51, 0, 3
|5, 4, 513, 50, 0, 3
|5, 9, 514, 50, 0, 3
|5, 2, 515, 53, 0, 3
|11, 1, 519, 53, 0, 5
|11, 1, 520, 52, 0, 5
|11, 1, 521, 50, 0, 3
|11, 1, 522, 50, 0, 3
|11, 1, 523, 50, 0, 3
|11, 1, 524, 50, 0, 2
|4, 1, 525, 55, 0, 4
|4, 3, 526, 53, 0, 4
|4, 1, 527, 50, 0, 3
|4, 1, 528, 50, 0, 6
|4, 1, 528, 51, 0, 6
|4, 3, 529, 50, 0, 6
|4, 3, 529, 51, 0, 6
|4, 1, 530, 50, 0, 3
|4, 1, 531, 50, 0, 3
|4, 1, 532, 50, 0, 3
|4, 3, 533, 50, 0, 4
|4, 3, 533, 51, 0, 4
|4, 3, 534, 50, 0, 3
|4, 3, 535, 50, 0, 3
|4, 3, 536, 50, 0, 3
|4, 3, 537, 50, 0, 3
|8, 2, 538, 52, 0, 3
|1, 4, 539, 50, 0, 5
|1, 4, 541, 50, 0, 4
|8, 6, 543, 50, 0, 3
|8, 6, 545, 51, 0, 3
|8, 5, 546, 50, 1, 3
|8, 6, 547, 51, 0, 3
|8, 6, 548, 50, 0, 3
|8, 6, 549, 50, 0, 3
|8, 2, 550, 50, 0, 3
|8, 3, 551, 52, 1, 4
|8, 4, 552, 50, 0, 4
|8, 4, 553, 50, 0, 3
|8, 4, 554, 50, 0, 3
|8, 4, 554, 51, 0, 3
|8, 4, 555, 50, 0, 3
|8, 4, 556, 51, 0, 4
|1, 4, 557, 50, 0, 4
|1, 4, 558, 50, 0, 3
|1, 4, 558, 51, 0, 3
|1, 4, 559, 50, 0, 4
|1, 8, 560, 51, 0, 3
|1, 9, 561, 50, 0, 3
|1, 9, 562, 50, 0, 3
|9, 5, 563, 50, 1, 2
|9, 5, 596, 50, 1, 4
|9, 5, 597, 50, 1, 4
|9, 5, 598, 50, 1, 4
|9, 5, 599, 50, 1, 3
|9, 7, 600, 50, 1, 4
|9, 7, 601, 50, 1, 4
|9, 7, 602, 50, 1, 3
|9, 7, 603, 50, 1, 3
|3, 3, 607, 50, 0, 5
|3, 1, 609, 50, 0, 4
|3, 1, 609, 51, 0, 4
|3, 3, 614, 50, 0, 5
|3, 1, 615, 52, 0, 5
|3, 1, 616, 50, 0, 5
|3, 1, 616, 51, 0, 5
|3, 4, 618, 50, 0, 4
|3, 3, 619, 50, 0, 3
|3, 1, 620, 51, 0, 2
|3, 1, 621, 51, 0, 3
|3, 1, 622, 51, 0, 2
|3, 5, 623, 50, 0, 3
|3, 5, 624, 50, 0, 5
|3, 5, 624, 51, 0, 5
|3, 3, 625, 50, 0, 3
|3, 5, 626, 50, 0, 3
|3, 5, 626, 51, 0, 3
|3, 5, 627, 50, 0, 3
|3, 5, 627, 51, 0, 3
|3, 5, 628, 50, 0, 4
|3, 5, 629, 52, 0, 4
|1, 1, 63, 51, 0, 3
|3, 3, 630, 51, 0, 3
|1, 1, 64, 52, 0, 2
|3, 7, 649, 50, 0, 3
|1, 1, 65, 53, 0, 3
|3, 7, 650, 50, 0, 4
|3, 7, 651, 50, 0, 4
|3, 7, 651, 51, 0, 4
|3, 9, 652, 50, 0, 3
|3, 9, 653, 50, 0, 4
|3, 9, 654, 50, 0, 6
|3, 7, 655, 50, 0, 3
|3, 7, 656, 50, 0, 4
|3, 9, 658, 50, 0, 4
|3, 9, 659, 50, 1, 3
|1, 1, 66, 52, 0, 3
|3, 7, 660, 51, 0, 3
|3, 9, 661, 51, 0, 3
|3, 7, 662, 50, 0, 3
|3, 3, 663, 50, 0, 4
|3, 3, 663, 51, 0, 4
|2, 6, 664, 50, 0, 3
|2, 6, 665, 51, 0, 3
|2, 6, 666, 50, 0, 3
|2, 6, 667, 51, 0, 3
|2, 6, 668, 50, 0, 3
|2, 6, 669, 51, 0, 3
|1, 1, 67, 51, 0, 3
|2, 6, 670, 50, 0, 3
|2, 8, 671, 51, 0, 3
|2, 8, 672, 51, 0, 3
|2, 8, 673, 51, 0, 3
|2, 8, 674, 50, 0, 3
|2, 8, 675, 50, 0, 3
|2, 8, 676, 50, 0, 3
|2, 8, 677, 50, 0, 3
|2, 5, 679, 51, 1, 3
|1, 1, 68, 52, 0, 3
|2, 5, 680, 50, 1, 3
|2, 5, 681, 50, 1, 3
|2, 5, 682, 50, 1, 3
|2, 5, 683, 50, 1, 3
|2, 5, 684, 50, 1, 3
|2, 7, 685, 50, 0, 3
|2, 7, 686, 50, 1, 3
|2, 7, 687, 50, 1, 3
|2, 7, 688, 50, 1, 3
|2, 7, 689, 50, 1, 3
|1, 1, 69, 50, 0, 2
|2, 7, 690, 50, 1, 3
|2, 9, 691, 50, 1, 3
|2, 9, 692, 50, 1, 3
|2, 9, 693, 50, 1, 3
|2, 9, 694, 50, 1, 3
|2, 9, 695, 50, 1, 3
|2, 9, 696, 50, 1, 3
|2, 2, 697, 50, 0, 3
|2, 2, 698, 50, 0, 3
|2, 2, 699, 50, 0, 3
|1, 1, 70, 54, 0, 4
|2, 2, 700, 50, 0, 3
|2, 2, 701, 50, 0, 3
|2, 2, 702, 50, 0, 3
|2, 2, 703, 51, 0, 3
|2, 4, 704, 50, 0, 3
|2, 4, 705, 54, 0, 4
|2, 4, 706, 50, 0, 3
|2, 4, 707, 50, 0, 3
|2, 4, 708, 50, 0, 3
|2, 4, 709, 50, 0, 3
|2, 4, 710, 50, 0, 3
|2, 1, 711, 51, 0, 3
|2, 1, 712, 50, 1, 3
|2, 1, 713, 51, 1, 3
|2, 1, 714, 51, 1, 3
|2, 1, 716, 50, 1, 3
|2, 1, 717, 50, 1, 3
|2, 3, 718, 56, 0, 4
|2, 3, 719, 50, 1, 3
|1, 2, 72, 50, 0, 5
|2, 3, 720, 50, 1, 3
|2, 3, 721, 51, 1, 3
|2, 3, 722, 50, 1, 3
|2, 3, 723, 50, 0, 3
|2, 3, 724, 50, 1, 3
|6, 3, 728, 50, 1, 3
|1, 2, 73, 52, 0, 4
|6, 1, 730, 50, 1, 3
|6, 3, 733, 51, 1, 3
|6, 3, 734, 51, 1, 3
|6, 3, 737, 50, 1, 3
|6, 1, 738, 50, 0, 3
|6, 4, 739, 51, 0, 3
|1, 2, 74, 50, 0, 3
|1, 2, 74, 53, 0, 3
|6, 2, 740, 51, 0, 3
|6, 2, 741, 50, 0, 3
|6, 2, 742, 51, 0, 3
|6, 2, 743, 51, 0, 3
|6, 4, 744, 50, 0, 3
|6, 4, 745, 50, 0, 3
|6, 4, 746, 51, 0, 3
|6, 2, 747, 51, 0, 3
|6, 2, 748, 50, 0, 3
|6, 4, 749, 50, 0, 3
|6, 4, 750, 50, 0, 3
|6, 4, 751, 50, 0, 3
|6, 6, 752, 50, 0, 3
|6, 6, 753, 50, 0, 3
|6, 8, 754, 50, 0, 3
|6, 8, 755, 50, 0, 3
|6, 6, 756, 50, 0, 3
|6, 8, 757, 50, 0, 3
|6, 8, 758, 50, 0, 3
|6, 8, 759, 50, 0, 3
|1, 2, 76, 51, 0, 4
|6, 6, 760, 50, 0, 3
|6, 6, 761, 50, 0, 3
|6, 6, 762, 50, 0, 3
|6, 8, 763, 50, 0, 3
|6, 5, 764, 50, 1, 3
|6, 5, 765, 50, 1, 3
|6, 5, 766, 50, 1, 3
|6, 5, 767, 50, 1, 3
|6, 7, 768, 50, 0, 3
|6, 9, 769, 50, 1, 3
|1, 2, 77, 52, 0, 3
|6, 7, 770, 51, 1, 3
|6, 9, 771, 52, 0, 3
|6, 9, 772, 53, 1, 3
|6, 9, 773, 51, 1, 3
|6, 9, 774, 51, 1, 3
|6, 7, 775, 50, 1, 3
|6, 9, 778, 51, 1, 3
|6, 7, 779, 51, 1, 3
|1, 2, 78, 50, 0, 3
|6, 5, 780, 50, 1, 3
|6, 7, 781, 51, 1, 3
|6, 9, 782, 50, 1, 3
|6, 7, 784, 51, 1, 3
|1, 2, 786, 50, 0, 5
|1, 4, 787, 50, 0, 3
|1, 4, 787, 51, 0, 3
|8, 2, 789, 51, 0, 5
|8, 3, 790, 51, 1, 3
|8, 3, 791, 52, 1, 3
|1, 3, 80, 50, 0, 3
|8, 4, 800, 53, 0, 4
|8, 2, 802, 51, 0, 3
|3, 5, 803, 53, 0, 2
|1, 3, 81, 50, 0, 4
|1, 3, 82, 51, 0, 5
|1, 3, 83, 50, 0, 4
|1, 3, 84, 50, 0, 3
|];
Da=[{1, 25, 205},
{2, 46, 298, 299, 302},
{3, 169},
{4, 5, 51, 52},
{6, 8, 104},
{7, 160},
{9, 10, 107, 115, 116},
{11, 125},
{12, 118, 122, 224, 245, 280},
{13, 23, 42},
{14, 44, 307},
{15, 303},
{16, 19, 32, 53, 108, 114, 123},
{17, 21},
{18, 41, 161, 172},
{20, 22, 189},
{24, 117},
{26, 129, 132},
{27, 28},
{29, 254},
{30, 192, 265},
{31},
{33, 255},
{34, 197, 279},
{35, 238, 262},
{36, 249, 277},
{37, 113, 120, 121, 124},
{38, 45, 106, 251, 305},
{39, 49},
{40, 48, 308},
{43, 83, 144, 158, 159, 306},
{47, 50, 184, 194, 272},
{54, 86, 87, 222, 234},
{55, 56},
{57, 58, 60},
{59},
{61, 62, 72},
{63, 77, 78},
{64, 65},
{66},
{67, 68, 70, 74, 217, 310},
{69},
{71},
{73},
{75, 76},
{79, 102, 221, 283, 301},
{80, 139, 162},
{81},
{82, 85, 111, 220},
{84, 168, 176, 177},
{88, 126, 157},
{89, 95, 97},
{90},
{91},
{92},
{93, 98},
{94},
{96, 101},
{99},
{100},
{103, 214, 229, 236},
{105, 183, 225},
{109, 128},
{110, 188},
{112, 216, 243, 304, 309},
{119},
{127},
{130, 230},
{131, 133},
{134, 212},
{135, 297},
{136, 137, 148, 149},
{138, 156, 300},
{140, 141, 150},
{142},
{143},
{145, 155, 166},
{146, 151, 152, 165},
{147},
{153, 154},
{163, 164, 167, 175},
{170},
{171},
{173, 174, 193, 228},
{178},
{179, 200},
{180, 191, 242},
{181, 218},
{182, 195, 257},
{185, 206, 271},
{186, 207, 226},
{187, 219},
{190, 202},
{196, 201, 231, 284},
{198, 239, 264},
{199, 258, 290},
{203, 208},
{204, 211},
{209, 232, 244},
{210},
{213, 252, 292},
{215, 237, 253, 256, 269, 278},
{223, 246},
{227, 270},
{233, 247, 267, 275},
{235},
{240, 281},
{241},
{248, 263},
{250},
{259},
{260, 273, 291},
{261, 293, 296},
{266, 285, 286},
{268, 276, 289},
{274, 294},
{282},
{287},
{288},
{295}
];
Ad=[1, 2, 3, 4, 4, 5, 6, 5, 7, 7, 8, 9, 10, 11, 12, 13, 14, 15, 13, 16, 14, 16, 10, 17, 1, 18, 19, 19, 20, 21, 22, 13, 23, 24, 25, 26, 27, 28, 29, 30, 15, 10, 31, 11, 28, 2, 32, 30, 29, 32, 4, 4, 13, 33, 34, 34, 35, 35, 36, 35, 37, 37, 38, 39, 39, 40, 41, 41, 42, 41, 43, 37, 44, 41, 45, 45, 38, 38, 46, 47, 48, 49, 31, 50, 49, 33, 33, 51, 52, 53, 54, 55, 56, 57, 52, 58, 52, 56, 59, 60, 58, 46, 61, 5, 62, 28, 7, 13, 63, 64, 49, 65, 27, 13, 7, 7, 17, 9, 66, 27, 27, 9, 13, 27, 8, 51, 67, 63, 18, 68, 69, 18, 69, 70, 71, 72, 72, 73, 47, 74, 74, 75, 76, 31, 77, 78, 79, 72, 72, 74, 78, 78, 80, 80, 77, 73, 51, 31, 31, 6, 15, 47, 81, 81, 78, 77, 81, 50, 3, 82, 83, 15, 84, 84, 81, 50, 50, 85, 86, 87, 88, 89, 62, 32, 90, 91, 92, 64, 16, 93, 87, 21, 84, 32, 89, 94, 24, 95, 96, 86, 94, 93, 97, 98, 1, 90, 91, 97, 99, 100, 98, 70, 101, 61, 102, 65, 41, 88, 92, 49, 46, 33, 103, 9, 62, 91, 104, 84, 61, 68, 94, 99, 105, 33, 106, 61, 102, 25, 95, 107, 108, 87, 65, 99, 9, 103, 105, 109, 26, 110, 28, 101, 102, 20, 23, 102, 89, 96, 111, 112, 113, 25, 109, 95, 21, 114, 105, 115, 102, 104, 90, 32, 112, 116, 105, 115, 26, 102, 24, 9, 107, 117, 46, 94, 114, 114, 118, 119, 115, 96, 112, 101, 113, 116, 120, 113, 71, 2, 2, 73, 46, 2, 12, 65, 28, 31, 11, 30, 65, 41];
D=[|false, false, false, false, false, false, false, false, false, false, false, false, false, false, false, false, false, false, false, false, false, false, false, false, false, false, false, false, false, false, false, false, false, false, false, false, false, false, false, false, false, false, false, false, false, false, false, false, false, false, false, false, false, false, false, false, false, false, false, false, false, false, false, false, false, false, false, false, false, false, false, false, false, false, false, false, false, false, false, false, false, false, false, false, false, false, false, false, false, false, false, false, false, false, false, false, false, false, false, false, false, false, false, false, false, false, false, false, false, false, false, false, false, false, false, false, false, false, false, false
|false, true , false, false, false, false, false, false, false, false, true , false, false, true , false, false, false, false, false, false, false, false, false, false, false, false, false, true , false, false, false, false, true , false, false, false, false, false, false, false, false, false, true , false, false, false, true , false, true , false, true , false, false, false, false, false, false, false, false, true , false, false, false, true , true , false, false, false, false, false, false, true , false, false, false, false, false, false, true , false, false, false, false, false, false, false, false, false, false, false, false, false, false, true , false, false, false, false, false, true , false, false, false, false, false, false, false, false, false, false, false, false, false, false, false, true , false, false, false, true 
|false, true , false, false, false, false, false, false, false, false, true , false, false, true , false, false, false, false, false, false, false, false, false, false, false, false, false, true , false, false, false, false, true , false, false, false, false, false, false, false, false, false, true , false, false, false, true , false, true , false, true , false, false, false, false, false, false, false, false, true , false, false, false, true , true , false, false, false, false, false, false, true , false, false, false, false, false, false, true , false, false, false, false, false, false, false, false, false, false, false, false, false, false, true , false, false, false, false, false, true , false, false, false, false, false, false, false, false, false, false, false, false, false, false, false, true , false, false, false, true 
|false, true , false, false, false, false, false, false, false, false, true , false, false, true , false, false, false, false, false, false, false, false, false, false, false, false, false, true , false, false, false, false, true , false, false, false, false, false, false, false, false, false, true , false, false, false, true , false, true , false, true , false, false, false, false, false, false, false, false, true , false, false, false, true , true , false, false, false, false, false, true , true , false, false, false, true , false, false, true , false, false, false, false, false, false, false, false, false, false, false, false, false, false, true , false, false, false, false, false, true , false, false, false, false, false, false, false, false, false, false, false, false, false, false, false, true , false, false, false, true 
|false, true , false, true , false, false, false, false, false, false, true , false, false, true , false, false, false, false, false, false, false, false, false, false, false, false, false, true , false, false, true , false, false, false, false, false, false, false, false, false, false, false, false, false, false, false, false, false, false, false, false, false, false, false, false, false, false, false, false, true , false, false, false, true , true , false, false, false, false, false, true , true , false, false, false, true , false, false, true , false, false, false, false, false, false, false, false, false, false, false, false, false, false, true , false, false, false, false, false, true , false, false, false, false, false, false, false, false, false, false, false, false, false, false, false, false, false, false, false, true 
|false, true , false, true , false, false, false, false, false, false, true , false, false, true , false, false, false, false, false, false, false, false, false, false, false, false, false, true , false, false, true , false, false, false, false, false, false, false, false, false, false, false, false, false, false, false, false, false, false, false, false, false, false, false, false, false, false, false, false, true , false, false, false, true , true , false, false, false, false, false, true , true , false, false, false, true , false, false, true , false, false, false, false, false, false, false, false, false, false, false, false, false, false, true , false, false, false, false, false, true , false, false, false, false, false, false, false, false, false, false, false, false, false, false, false, false, false, false, false, true 
|false, true , false, true , false, false, false, false, false, false, true , false, false, true , false, false, false, false, false, false, false, false, false, false, false, false, false, true , false, false, true , false, false, false, false, false, false, false, false, false, false, false, false, false, false, false, false, false, false, false, false, false, false, false, false, false, false, false, false, false, false, false, false, true , true , false, false, false, false, false, false, true , false, false, false, false, false, false, true , false, false, false, false, false, false, false, false, false, false, false, false, false, false, true , false, false, false, false, false, true , false, false, false, false, false, false, false, false, false, false, false, false, false, false, false, false, false, false, false, true 
|false, false, false, false, false, false, false, false, false, false, false, false, false, false, false, false, false, true , false, false, false, false, false, false, false, false, false, false, false, false, true , false, true , false, false, false, false, false, false, false, false, false, false, false, false, false, false, false, false, false, false, false, false, false, false, false, false, false, false, false, false, false, false, true , false, false, false, false, false, false, false, false, false, false, false, false, false, false, false, false, false, false, false, false, false, false, false, false, false, true , false, false, false, true , false, false, false, false, false, true , false, false, false, false, false, false, false, false, false, false, false, false, false, false, false, false, false, false, false, true 
|false, true , false, true , false, false, true , false, false, false, false, false, false, true , false, false, false, true , false, false, false, false, false, false, false, false, false, false, false, false, true , false, true , false, false, false, false, false, true , false, false, false, false, false, true , false, true , false, true , false, false, false, false, false, false, false, false, false, false, true , false, false, false, true , false, false, false, false, false, false, false, false, false, false, false, false, false, false, false, false, false, false, false, false, false, false, false, false, true , true , false, false, false, true , false, false, false, false, false, true , false, false, false, false, false, false, false, false, false, true , false, false, false, false, false, false, false, false, false, true 
|false, true , false, true , false, false, true , false, true , false, false, false, false, true , false, false, false, true , false, false, false, false, false, false, false, false, false, false, false, false, true , false, true , false, false, false, false, false, true , false, false, false, false, false, true , true , true , false, true , false, false, false, false, false, false, false, false, false, false, true , false, false, false, true , false, false, false, false, false, false, false, false, false, false, false, false, false, false, false, false, false, false, false, false, false, false, false, false, true , true , false, false, true , true , false, false, false, false, false, true , false, false, false, false, false, false, false, false, false, true , false, false, false, false, false, false, false, false, false, true 
|false, true , false, true , false, false, true , false, true , false, false, false, false, true , false, false, false, true , false, false, false, false, false, false, false, false, false, false, false, false, true , false, false, false, false, false, false, false, true , false, false, false, false, false, true , true , true , false, true , false, false, false, false, false, false, false, false, false, false, true , false, false, false, true , false, false, false, false, false, false, false, false, false, false, false, false, false, false, false, false, false, false, false, false, false, false, false, false, true , true , false, false, true , true , false, false, false, false, false, true , false, false, false, false, false, false, false, false, false, true , false, false, false, false, false, false, false, false, false, true 
|false, false, false, true , false, false, true , false, true , false, false, false, false, false, false, false, false, true , false, false, false, false, false, false, false, false, false, false, false, false, true , false, false, false, false, false, false, false, false, false, false, false, false, false, false, true , false, false, false, false, false, false, false, false, false, false, false, false, false, true , false, false, false, false, false, false, false, false, false, false, false, false, false, false, false, false, false, false, false, false, false, false, false, false, false, false, false, false, false, true , false, false, true , true , false, false, false, false, false, true , false, false, false, false, false, false, false, false, false, false, false, false, false, false, false, false, false, false, false, true 
|false, false, false, true , false, false, true , false, true , false, true , false, false, true , false, false, false, true , false, false, false, false, true , false, true , false, false, false, false, true , true , false, false, false, false, false, false, false, false, false, false, false, false, false, false, false, false, false, false, false, false, false, false, false, false, false, false, false, false, true , false, false, true , false, true , false, false, true , false, true , false, false, false, false, false, false, false, false, false, false, false, false, false, false, false, false, true , false, false, true , false, false, true , true , true , false, true , false, false, true , false, false, true , true , false, true , false, false, false, false, false, false, false, false, false, true , false, false, true , true 
|false, false, false, true , false, false, true , false, true , false, true , false, false, true , false, false, false, true , false, false, false, false, true , false, true , false, false, false, false, true , true , false, false, false, false, false, false, false, false, false, false, false, false, false, false, false, false, false, false, false, false, false, false, false, false, false, false, false, false, true , false, false, true , false, true , false, false, true , false, true , false, false, false, false, false, false, false, false, false, false, false, false, false, false, false, false, true , false, false, true , false, false, true , true , true , false, true , false, false, true , false, false, true , true , false, true , false, false, false, false, false, false, false, false, false, true , false, false, true , true 
|false, false, false, true , false, false, true , false, true , false, true , false, false, true , false, false, false, true , false, false, false, false, true , false, true , false, false, false, false, true , true , false, false, false, false, false, false, false, false, false, false, false, false, false, false, false, false, false, false, false, false, false, false, false, false, false, false, false, false, true , false, false, true , false, true , false, false, true , false, true , false, false, false, false, false, false, false, false, false, false, false, false, false, false, false, false, true , false, false, true , false, false, true , true , true , false, true , false, false, true , false, false, true , true , false, true , false, false, false, false, false, false, false, false, false, true , false, false, true , true 
|false, false, false, true , false, false, true , false, false, false, true , false, false, true , false, false, false, true , false, false, false, false, false, false, false, false, false, false, false, true , false, false, false, false, false, false, false, false, false, false, false, false, false, false, false, false, false, false, false, false, false, false, false, false, false, false, false, false, false, false, false, false, true , false, false, false, false, false, false, false, false, false, false, false, false, false, false, false, false, false, false, false, false, false, false, false, false, false, false, true , false, false, false, true , true , false, true , false, false, true , false, false, false, false, false, false, false, false, false, false, false, false, false, false, false, false, false, false, false, true 
|false, false, false, false, false, false, false, false, false, false, false, false, false, false, false, false, false, false, false, false, false, false, false, false, false, false, false, false, false, false, false, false, false, false, false, false, false, false, false, false, false, false, false, false, false, false, false, false, false, false, false, false, false, false, false, false, false, false, false, false, false, false, false, false, false, false, false, false, false, false, false, false, false, false, false, false, false, false, false, false, false, false, false, false, false, false, false, false, false, false, false, false, false, false, false, false, false, false, false, false, false, false, false, false, false, false, false, false, false, false, false, false, false, false, false, false, false, false, false, false
|true , true , false, false, false, false, false, false, false, false, true , false, true , false, true , true , false, false, true , false, false, false, false, false, false, true , true , false, false, false, true , true , false, false, true , false, true , false, false, false, false, false, false, false, false, false, true , false, true , false, true , true , true , false, false, false, false, false, false, false, false, false, false, false, false, false, false, false, false, false, false, true , true , true , false, false, true , false, false, false, false, false, false, true , true , true , true , false, true , false, false, true , false, true , false, false, false, false, false, true , false, true , false, false, false, false, false, false, true , false, false, false, false, false, false, false, false, false, false, true 
|true , true , false, false, false, false, false, false, false, false, true , false, true , false, true , true , false, false, true , false, false, false, false, false, false, true , true , false, false, false, true , true , false, false, true , false, true , false, false, false, false, false, false, false, false, false, true , false, true , false, true , true , true , false, false, false, false, false, false, false, false, false, false, false, false, false, false, false, false, false, false, true , true , true , false, false, true , false, false, false, false, false, false, true , true , true , true , false, true , false, false, true , false, true , false, false, false, false, false, true , false, true , false, false, false, false, false, false, true , false, false, false, false, false, false, false, false, false, false, true 
|true , true , false, false, true , false, false, false, false, false, true , false, true , false, true , true , false, false, true , false, true , false, false, false, false, true , true , false, false, false, true , true , false, false, true , false, true , false, true , false, true , false, false, false, false, false, true , false, true , false, true , true , true , false, false, false, false, false, false, false, true , false, false, false, false, false, false, false, false, false, false, true , true , true , false, false, true , false, false, false, false, false, false, true , true , true , true , false, true , false, true , true , false, true , false, false, false, false, false, true , false, true , false, false, false, false, false, false, true , false, false, false, false, false, false, false, false, false, false, true 
|true , true , false, true , true , false, false, false, false, false, true , false, true , false, true , false, false, false, true , false, true , false, false, false, true , false, true , false, false, false, true , true , false, false, true , false, true , false, true , false, true , false, false, false, false, false, true , false, true , false, false, true , true , false, false, false, false, false, false, false, true , false, false, false, false, true , false, false, false, false, false, true , true , true , false, false, false, false, false, false, false, false, false, true , false, false, false, false, false, true , true , false, false, true , false, false, false, false, false, true , false, true , false, true , false, false, false, false, false, false, false, false, false, false, false, false, false, false, false, true 
|true , true , false, true , true , false, false, false, false, false, true , false, true , false, true , false, false, false, true , false, true , false, false, false, true , false, true , false, false, false, true , true , false, false, true , false, true , false, true , false, true , false, false, false, false, false, true , false, true , false, false, true , true , false, false, false, false, false, false, false, true , false, false, false, false, true , false, false, false, false, false, true , true , true , false, false, false, false, false, false, false, false, false, true , false, false, false, false, false, true , true , false, false, true , false, false, false, false, false, true , false, true , false, true , false, false, false, false, false, false, false, false, false, false, false, false, false, false, false, true 
|true , true , false, true , false, false, false, false, false, false, true , false, false, false, true , false, false, false, true , false, false, false, false, false, true , false, true , false, false, false, true , true , false, false, true , false, false, false, false, false, false, false, false, false, false, false, true , false, false, false, false, true , true , false, false, false, false, false, false, false, false, false, false, false, false, true , false, false, false, false, false, true , true , true , false, false, false, false, false, false, false, false, false, true , false, false, false, false, false, true , false, false, false, true , false, false, false, false, false, true , false, true , false, true , false, false, false, false, false, false, false, false, false, false, false, false, false, false, false, true 
|true , false, false, false, false, false, false, false, false, false, false, false, false, false, false, false, false, true , false, false, false, false, false, false, false, false, false, false, false, false, true , false, false, false, false, false, false, false, false, false, false, false, false, false, false, false, false, false, false, false, false, false, false, false, false, false, false, false, false, false, false, false, false, false, true , true , false, false, false, false, false, false, false, false, false, false, false, false, false, false, false, false, false, false, false, false, false, false, false, true , false, false, false, true , false, false, false, false, false, true , false, false, false, true , false, false, false, false, false, false, false, false, false, false, false, false, false, false, false, true 
|true , true , false, true , false, false, true , false, true , false, false, false, false, false, false, false, true , true , true , false, false, false, false, false, false, false, true , false, false, false, true , true , true , false, false, false, true , false, true , false, true , false, false, false, true , false, true , false, true , false, false, false, false, false, false, false, false, false, false, false, true , false, false, false, true , true , false, false, false, false, false, false, true , true , false, false, true , false, false, false, false, false, false, false, false, false, false, false, false, true , false, false, false, true , true , false, false, false, false, true , false, false, false, true , false, false, false, false, false, false, false, false, false, false, false, false, false, false, false, true 
|true , true , true , true , false, false, true , true , true , true , false, false, false, false, false, true , true , true , true , true , true , false, false, false, false, false, true , false, false, false, true , true , true , false, false, false, true , false, true , false, true , false, false, false, true , true , true , false, true , false, false, false, false, false, false, false, false, false, false, false, true , true , false, false, true , true , false, false, false, false, false, false, true , true , false, false, true , false, false, false, false, false, false, false, false, false, false, false, false, true , false, false, true , true , true , true , false, false, false, true , false, false, false, true , false, false, false, false, false, false, false, false, false, false, true , false, false, false, false, true 
|true , true , true , true , false, false, true , true , true , true , false, false, false, false, false, true , true , true , true , true , true , false, false, false, false, false, true , false, false, false, true , true , true , false, false, false, true , false, true , false, true , false, false, false, true , true , true , false, true , false, false, false, false, false, false, false, false, false, false, false, true , true , false, false, true , true , false, false, false, false, false, false, true , true , false, false, true , false, false, false, false, false, false, false, false, false, false, false, false, true , false, false, true , true , true , true , false, false, false, true , false, false, false, false, false, false, false, false, false, false, false, false, false, false, true , false, false, false, false, true 
|true , false, true , true , false, false, true , true , false, true , false, false, false, false, false, true , false, true , true , true , true , false, false, false, false, false, false, false, false, false, true , false, true , false, false, false, false, false, false, false, false, false, false, false, false, true , false, false, false, false, false, false, false, false, false, false, false, false, false, false, false, true , false, false, true , false, false, false, false, false, false, false, false, true , false, false, false, false, false, false, false, false, false, false, false, false, false, false, false, true , false, false, true , true , true , true , false, false, false, true , false, false, false, false, false, false, false, false, false, false, false, false, false, false, true , false, false, false, false, true 
|false, false, false, true , false, false, true , true , false, false, true , false, false, false, false, false, false, true , false, true , true , false, false, false, false, true , true , true , false, false, true , true , false, false, false, false, false, false, false, false, false, false, false, false, false, true , false, false, false, false, false, false, false, false, false, false, false, false, false, false, false, false, false, false, true , false, false, true , false, true , false, false, false, false, false, false, false, false, false, false, false, false, true , true , true , false, true , false, true , true , true , false, true , true , true , true , true , true , true , true , false, true , true , false, false, false, true , false, false, false, false, true , false, false, true , false, false, false, false, true 
|false, false, false, true , false, false, true , true , false, false, true , false, false, false, false, false, false, true , false, true , true , false, false, false, false, true , true , true , false, false, true , true , false, false, false, false, false, false, false, false, false, false, false, false, false, true , false, false, false, false, false, false, false, false, false, false, false, false, false, false, false, false, false, false, true , false, false, true , false, true , false, false, false, false, false, false, false, false, false, false, false, false, true , true , true , false, true , false, true , true , true , false, true , true , true , true , true , true , true , true , false, true , true , false, false, false, true , false, false, false, false, true , false, false, true , false, false, false, false, true 
|false, false, false, true , false, false, true , true , false, false, true , false, false, false, false, false, false, true , false, true , true , false, false, false, false, true , true , true , false, false, true , true , false, false, false, false, false, false, false, false, false, false, false, false, false, true , false, false, false, false, false, false, false, false, false, false, false, false, false, false, false, false, false, false, true , false, false, true , false, true , false, false, false, false, false, false, false, false, false, false, false, false, true , true , true , false, true , false, true , true , true , false, true , true , true , true , true , true , true , true , false, true , true , false, false, false, true , false, false, false, false, true , false, false, true , false, false, false, false, true 
|false, false, false, true , false, false, true , true , false, false, true , false, false, false, false, false, false, true , false, true , false, false, false, false, false, true , true , true , false, false, false, true , false, false, false, false, false, false, false, false, false, false, false, false, false, false, false, false, false, false, false, false, false, false, false, false, false, false, false, false, false, false, false, false, false, false, false, false, false, false, false, false, false, false, false, false, false, false, false, false, false, false, false, false, false, false, false, false, false, false, false, false, false, true , false, false, false, false, true , true , false, false, false, false, false, false, false, false, false, false, false, false, false, false, false, false, false, false, false, true 
|false, false, false, false, false, false, false, false, false, false, false, false, false, false, false, false, false, false, false, false, false, false, false, false, false, false, false, false, false, false, false, false, false, false, false, false, false, false, false, false, false, false, false, false, false, false, false, false, false, false, false, false, false, false, false, false, false, false, false, false, false, false, false, false, false, false, false, false, false, false, false, false, false, false, false, false, false, false, false, false, false, false, false, false, false, false, false, false, false, false, false, false, false, false, false, false, false, false, false, false, false, false, false, false, false, false, false, false, false, false, false, false, false, false, false, false, false, false, false, false
|false, false, false, false, false, false, false, false, true , true , false, false, true , false, false, false, false, true , false, false, false, false, false, false, true , true , false, true , false, true , true , true , false, false, true , false, false, false, false, false, true , true , false, false, false, false, false, false, true , true , true , true , false, false, false, false, false, false, false, false, true , false, false, false, true , false, false, false, false, false, false, true , true , false, false, false, true , false, false, false, true , false, false, true , false, false, true , false, true , false, false, false, false, true , false, true , false, false, false, true , true , true , false, false, false, false, false, false, false, false, true , true , false, false, false, false, false, false, false, true 
|false, false, false, false, false, false, false, false, true , true , false, false, true , false, false, false, false, true , false, false, false, false, false, false, true , true , false, true , false, true , true , true , false, false, true , false, false, false, false, false, true , true , false, false, false, false, false, false, true , true , true , true , false, false, false, false, false, false, false, false, true , false, false, false, true , false, false, false, false, false, false, true , true , false, false, false, true , false, false, false, true , false, false, true , false, false, true , false, true , false, false, false, false, true , false, true , false, false, false, true , true , true , false, false, false, false, false, false, false, false, true , true , false, false, false, false, false, false, false, true 
|false, false, false, false, true , false, true , false, true , true , false, false, true , false, false, false, false, true , false, false, true , false, true , false, true , true , false, true , false, true , true , true , false, false, true , false, false, false, false, false, true , true , false, false, false, false, false, false, true , true , true , true , false, false, false, false, false, false, false, false, true , true , false, false, true , false, false, false, false, false, false, true , true , false, false, false, true , false, false, false, true , false, false, true , false, false, true , true , true , false, true , false, false, true , false, true , false, false, false, true , true , true , false, false, false, false, false, false, false, false, true , true , false, false, false, false, false, false, false, true 
|false, false, false, false, true , false, true , false, false, false, false, false, true , false, false, false, false, true , true , false, true , false, true , false, false, false, false, false, false, true , true , true , false, false, true , false, false, false, false, false, true , true , false, false, false, false, false, false, true , true , false, true , false, false, false, false, false, true , false, false, true , true , false, false, true , false, false, false, false, false, true , true , true , false, false, false, true , false, false, false, true , false, false, true , false, false, false, true , false, false, true , false, false, true , false, false, false, false, false, true , false, true , false, true , false, false, false, false, false, false, false, true , false, false, false, false, false, false, false, true 
|false, false, false, false, true , false, true , false, false, false, false, false, true , false, false, false, false, true , true , false, true , false, true , false, false, false, false, false, false, true , true , true , false, false, true , false, false, false, false, false, true , true , false, false, false, false, false, false, true , true , false, true , false, false, false, false, false, true , false, false, true , true , false, false, true , false, false, false, false, false, true , true , true , false, false, false, true , false, false, false, true , false, false, true , false, false, false, true , false, false, true , false, false, true , false, false, false, false, false, true , false, true , false, true , false, false, false, false, false, false, false, true , false, false, false, false, false, false, false, true 
|false, false, false, false, false, false, false, false, false, false, false, false, false, false, false, false, false, true , true , false, false, false, true , false, false, false, false, false, false, true , true , false, false, false, true , false, false, false, false, false, false, true , false, false, false, false, false, false, false, true , false, false, false, false, false, false, false, true , false, false, true , false, false, false, true , false, false, false, false, false, true , true , true , false, false, false, false, false, false, false, true , false, false, true , false, false, false, false, false, false, false, false, false, true , false, false, false, false, false, true , false, true , false, true , false, false, false, false, false, false, false, true , false, false, false, false, false, false, false, true 
|false, false, false, true , false, false, true , false, false, false, false, false, false, false, false, false, false, false, false, false, false, false, false, false, false, false, false, false, false, false, true , false, false, false, false, false, false, false, false, false, false, false, false, false, false, false, false, false, false, false, false, false, false, false, false, false, false, false, false, false, false, false, false, false, false, true , false, false, true , false, false, false, false, false, false, false, false, false, false, false, false, false, false, true , false, false, false, false, false, false, false, false, false, true , false, false, false, false, false, true , false, false, false, false, false, false, false, false, false, false, false, false, false, false, false, false, false, false, false, true 
|false, false, false, true , false, false, true , false, true , false, false, false, false, false, false, true , true , false, false, false, false, false, true , false, false, false, false, false, true , false, true , true , true , false, false, true , false, false, false, false, true , false, false, false, true , false, false, false, true , true , false, true , false, false, false, true , false, true , false, false, true , false, false, false, false, true , false, false, true , false, false, false, true , true , false, false, true , false, false, false, true , false, false, true , false, false, false, true , false, false, false, false, false, true , false, false, false, false, false, true , false, false, true , true , false, false, false, false, true , false, false, false, false, false, false, false, false, false, false, true 
|false, false, false, true , false, false, true , true , true , false, false, false, false, false, false, true , true , false, false, false, true , false, true , false, false, false, false, true , true , false, true , true , true , false, false, true , false, false, false, false, true , false, false, false, true , true , false, false, true , true , false, true , false, false, false, true , false, true , false, false, true , true , false, false, false, true , false, false, true , false, false, false, true , true , false, false, true , false, false, false, true , false, false, true , false, false, false, true , false, false, false, false, false, true , false, false, false, false, false, true , true , false, true , true , false, false, false, false, true , false, false, true , false, false, true , false, false, false, false, true 
|false, false, false, true , false, false, false, true , true , false, false, false, false, false, false, true , true , false, false, false, true , false, true , false, false, false, false, true , true , false, true , true , true , false, false, true , false, false, false, false, true , false, false, false, true , true , false, false, true , true , false, true , false, false, false, true , false, true , false, false, true , true , false, false, false, true , false, false, false, false, false, false, true , true , false, false, true , false, false, false, true , false, false, true , false, false, false, true , false, false, false, false, false, true , false, false, false, false, false, true , true , false, true , true , false, false, false, false, true , false, false, true , false, false, true , false, false, false, false, true 
|false, false, false, true , false, false, false, true , false, false, false, false, false, false, false, true , false, false, false, false, true , false, true , false, false, false, false, true , true , false, true , false, false, false, false, false, false, false, false, false, false, false, false, false, false, true , false, false, false, false, false, true , false, false, false, true , false, true , false, false, true , true , false, false, false, true , false, false, false, false, false, false, false, true , false, false, true , false, false, false, false, false, false, true , false, false, false, false, false, false, false, false, false, true , false, false, false, false, false, true , true , false, false, false, false, false, false, false, false, false, false, true , false, false, true , false, false, false, false, true 
|false, true , false, true , false, false, false, true , true , true , false, false, true , false, true , false, false, true , false, true , true , true , true , false, false, true , false, false, true , false, true , false, false, false, false, false, false, false, false, false, false, false, false, false, false, true , false, false, false, false, false, false, false, false, false, false, false, false, false, false, true , false, true , false, false, false, true , true , true , true , false, false, false, false, false, false, false, false, false, false, false, false, true , true , false, true , true , false, true , false, false, false, false, true , false, true , true , true , true , true , true , false, false, false, false, true , false, false, false, false, false, true , true , false, true , false, true , false, true , true 
|false, true , false, true , false, false, false, true , true , true , false, false, true , false, true , false, false, true , false, true , true , true , true , false, false, true , false, false, true , false, true , false, false, false, false, false, false, false, false, false, false, false, false, false, false, true , false, false, false, false, false, false, false, false, false, false, false, false, false, false, true , false, true , false, false, false, true , true , true , true , false, false, false, false, false, false, false, false, false, false, false, false, true , true , false, true , true , false, true , false, false, false, false, true , false, true , true , true , true , true , true , false, false, false, false, true , false, false, false, false, false, true , true , false, true , false, true , false, true , true 
|false, true , false, true , false, false, false, true , true , true , false, false, true , false, true , false, false, true , false, true , true , true , true , false, false, true , false, false, true , false, true , false, false, false, false, false, false, false, false, false, false, false, false, false, false, true , false, false, false, false, false, false, false, false, false, false, false, false, false, false, true , false, true , false, false, false, true , true , true , true , false, false, false, false, false, false, false, false, false, false, false, false, true , true , false, true , true , false, true , false, false, false, false, true , false, true , true , true , true , true , true , false, false, false, false, true , false, false, false, false, false, true , true , false, true , false, true , false, true , true 
|false, false, false, true , false, false, false, true , false, false, false, false, true , false, false, false, false, true , false, true , false, false, false, false, false, true , false, false, false, false, false, false, false, false, false, false, false, false, false, false, false, false, false, false, false, false, false, false, false, false, false, false, false, false, false, false, false, false, false, false, false, false, true , false, false, false, true , false, true , false, false, false, false, false, false, false, false, false, false, false, false, false, false, true , false, false, false, false, false, false, false, false, false, true , false, false, true , false, true , true , false, false, false, false, false, false, false, false, false, false, false, false, false, false, false, false, false, false, false, true 
|false, false, false, false, false, false, false, false, false, false, false, false, false, false, false, false, false, false, false, false, false, false, false, false, false, false, false, false, false, false, false, false, false, false, false, false, false, false, false, false, false, false, false, false, false, false, false, false, false, false, false, false, false, false, false, false, false, false, false, false, false, false, false, false, false, false, false, false, false, false, false, false, false, false, false, false, false, false, false, false, false, false, false, false, false, false, false, false, false, false, false, false, false, false, false, false, false, false, false, false, false, false, false, false, false, false, false, false, false, false, false, false, false, false, false, false, false, false, false, false
|true , true , false, true , false, false, false, false, false, false, false, true , false, false, false, true , false, false, false, false, false, false, false, false, false, true , true , false, false, false, false, false, false, false, true , false, false, true , false, false, false, false, false, false, false, false, true , false, false, true , false, false, false, false, false, false, false, false, false, false, false, false, false, false, true , false, false, true , false, false, false, true , false, false, false, false, false, false, true , false, true , false, false, false, false, false, true , false, false, false, false, true , false, false, false, false, false, false, false, true , true , true , false, false, false, false, false, false, false, false, false, false, false, false, false, false, false, false, false, true 
|true , true , false, true , false, false, false, false, false, false, false, true , false, false, false, true , false, false, false, false, false, false, false, false, false, true , true , false, false, false, false, false, false, false, true , false, false, true , false, false, false, false, false, false, false, false, true , false, false, true , false, false, false, false, false, false, false, false, false, false, false, false, false, false, true , false, false, true , false, false, false, true , false, false, false, false, false, false, true , false, true , false, false, false, false, false, true , false, false, false, false, true , false, false, false, false, false, false, false, true , true , true , false, false, false, false, false, false, false, false, false, false, false, false, false, false, false, false, false, true 
|true , true , false, true , true , false, true , false, false, false, false, true , false, false, false, true , false, false, false, false, false, false, false, false, false, true , true , false, false, false, false, true , false, false, true , false, false, true , false, true , false, false, false, false, false, false, true , false, false, true , false, false, false, false, false, false, false, false, false, false, false, true , false, false, true , false, false, true , false, false, true , true , false, false, false, false, false, false, true , false, true , false, false, false, false, false, true , false, false, false, false, true , false, false, false, false, false, false, false, true , true , true , false, false, false, false, false, false, true , false, false, false, false, false, false, false, false, false, false, true 
|true , true , false, true , true , true , true , false, false, false, false, true , false, false, false, false, false, false, false, false, false, false, false, false, true , false, true , false, false, false, false, true , false, false, true , false, false, true , false, true , false, false, false, false, false, false, true , false, false, true , false, false, false, false, false, false, false, false, false, false, false, true , false, false, true , false, false, false, false, false, true , true , false, false, false, false, false, false, true , false, true , false, false, false, false, false, false, false, false, false, false, false, false, false, false, false, false, false, false, true , false, true , false, false, false, false, false, false, true , false, false, false, false, false, false, false, false, false, false, true 
|true , true , false, true , true , true , true , false, false, false, false, true , false, false, false, false, false, false, false, false, false, false, false, false, true , false, true , false, false, false, false, true , false, false, true , false, false, true , false, true , false, false, false, false, false, false, true , false, false, true , false, false, false, false, false, false, false, false, false, false, false, true , false, false, true , false, false, false, false, false, true , true , false, false, false, false, false, false, true , false, true , false, false, false, false, false, false, false, false, false, false, false, false, false, false, false, false, false, false, true , false, true , false, false, false, false, false, false, true , false, false, false, false, false, false, false, false, false, false, true 
|true , true , false, false, false, true , true , false, false, false, false, true , false, false, false, false, false, false, false, false, false, false, false, false, true , false, true , false, false, false, false, true , false, false, true , false, false, true , false, false, false, false, false, false, false, false, true , false, false, true , false, false, false, false, false, false, false, false, false, false, false, false, false, false, true , false, false, false, false, false, true , true , false, false, false, false, false, false, true , false, true , false, false, false, false, false, false, false, false, false, false, false, false, false, false, false, false, false, false, true , false, true , false, false, false, false, false, false, false, false, false, false, false, false, false, false, false, false, false, true 
|false, false, false, false, false, false, true , false, false, false, false, false, false, false, false, false, false, false, false, false, false, false, false, false, false, false, false, false, false, false, false, false, false, false, false, false, false, false, false, false, false, false, false, false, false, false, false, false, false, false, false, false, false, false, false, false, false, false, false, false, false, false, false, false, false, false, false, false, false, false, false, false, false, false, false, false, false, false, false, true , false, false, false, false, false, false, false, false, false, false, false, false, false, false, false, false, false, false, false, true , false, false, false, false, false, false, false, false, false, false, false, false, false, false, false, false, false, false, false, true 
|false, false, false, true , true , false, true , false, true , false, false, false, true , false, false, false, false, false, false, false, false, false, false, false, false, false, false, false, false, false, false, true , true , false, false, false, false, true , false, false, false, false, false, false, true , false, true , false, false, true , false, false, false, false, false, false, false, false, false, false, false, false, false, false, false, false, false, false, false, false, true , false, false, false, false, false, false, true , false, true , true , false, false, false, false, false, false, false, false, false, false, false, false, false, false, false, false, false, false, true , false, false, true , false, true , false, false, false, false, false, false, false, false, false, false, false, false, false, false, true 
|false, false, false, true , true , true , true , true , true , false, false, false, true , false, true , false, false, false, false, false, false, false, false, false, false, false, false, false, false, false, false, true , true , false, false, false, false, true , false, false, false, false, false, false, true , true , true , false, false, true , false, false, false, false, false, false, false, false, false, false, false, true , false, false, false, false, false, false, false, false, true , false, false, false, false, false, false, true , false, true , true , false, false, false, false, false, false, false, false, false, false, false, true , false, false, false, false, false, false, true , true , false, true , false, true , false, false, false, false, false, true , false, false, false, true , false, false, false, false, true 
|false, false, false, true , true , true , true , true , true , false, false, false, true , false, true , false, false, false, false, false, false, false, false, false, false, false, false, false, false, false, false, true , true , false, false, false, false, true , false, false, false, false, false, false, true , true , true , false, false, true , false, false, false, false, false, false, false, false, false, false, false, true , false, false, false, false, false, false, false, false, true , false, false, false, false, false, false, true , false, true , true , false, false, false, false, false, false, false, false, false, false, false, true , false, false, false, false, false, false, true , true , false, true , false, true , false, false, false, false, false, true , false, false, false, true , false, false, false, false, true 
|false, false, false, false, true , true , true , true , true , false, false, false, true , false, true , false, false, false, false, false, false, false, false, false, false, false, false, false, false, false, false, false, true , false, false, false, false, false, false, false, false, false, false, false, false, true , false, false, false, false, false, false, false, false, false, false, false, false, false, false, false, true , false, false, false, false, false, false, false, false, true , false, false, false, false, false, false, false, false, true , false, false, false, false, false, false, false, false, false, false, false, false, true , false, false, false, false, false, false, true , true , false, false, false, false, false, false, false, false, false, true , false, false, false, true , false, false, false, false, true 
|false, true , false, true , false, false, false, true , false, true , false, false, true , false, true , true , false, true , false, false, false, false, false, true , true , true , false, true , false, true , false, false, false, false, false, false, false, false, false, false, false, false, false, false, false, true , false, false, false, false, false, false, false, false, false, false, false, false, false, true , false, false, false, false, false, false, false, true , false, true , false, false, false, false, false, false, false, false, false, false, false, false, false, false, false, false, true , false, false, true , false, false, true , true , false, false, true , false, true , true , true , false, false, false, true , false, true , true , true , false, false, false, false, false, true , false, true , false, false, true 
|false, true , false, true , false, false, false, true , false, true , false, false, true , false, true , true , false, true , false, false, false, false, false, true , true , true , false, true , false, true , false, false, false, false, false, false, false, false, false, false, false, false, false, false, false, true , false, false, false, false, false, false, false, false, false, false, false, false, false, true , false, false, false, false, false, false, false, true , false, true , false, false, false, false, false, false, false, false, false, false, false, false, false, false, false, false, true , false, false, true , false, false, true , true , false, false, true , false, true , true , true , false, false, false, true , false, true , true , true , false, false, false, false, false, true , false, true , false, false, true 
|false, true , false, true , false, false, false, true , false, true , false, false, true , false, true , true , false, true , false, false, false, false, false, true , true , true , false, true , false, true , false, false, false, false, false, false, false, false, false, false, false, false, false, false, false, true , false, false, false, false, false, false, false, false, false, false, false, false, false, true , false, false, false, false, false, false, false, true , false, true , false, false, false, false, false, false, false, false, false, false, false, false, false, false, false, false, true , false, false, true , false, false, true , true , false, false, true , false, true , true , true , false, false, false, true , false, true , true , true , false, false, false, false, false, true , false, true , false, false, true 
|false, false, false, true , false, false, false, true , false, false, false, false, false, false, false, true , false, true , false, false, false, false, false, false, false, true , false, false, false, true , false, false, false, false, false, false, false, false, false, false, false, false, false, false, false, false, false, false, false, false, false, false, false, false, false, false, false, false, false, false, false, false, false, false, false, false, false, false, false, false, false, false, false, false, false, false, false, false, false, false, false, false, false, false, false, false, false, false, false, false, false, false, false, false, false, false, true , false, true , true , false, false, false, false, false, false, false, false, false, false, false, false, false, false, false, false, false, false, false, true 
|false, false, false, false, false, false, false, false, false, false, false, false, false, false, false, false, false, false, false, false, false, false, false, false, false, false, false, false, false, false, false, false, false, false, false, false, false, false, false, false, false, false, false, false, false, false, false, false, false, false, false, false, false, false, false, false, false, false, false, false, false, false, false, false, false, false, false, false, false, false, false, false, false, false, false, false, false, false, false, false, false, false, false, false, false, false, false, false, false, false, false, false, false, false, false, false, false, false, false, false, false, false, false, false, false, false, false, false, false, false, false, false, false, false, false, false, false, false, false, false
|true , false, false, false, false, false, false, false, false, false, false, false, false, false, false, true , false, false, false, false, false, false, false, false, true , true , false, false, false, false, false, false, true , false, false, false, true , true , false, false, true , false, false, false, true , false, false, false, false, false, false, true , false, true , true , false, true , false, false, false, true , false, false, false, true , false, false, false, false, false, true , false, true , true , false, false, false, true , false, false, true , false, false, false, false, true , false, false, false, false, false, false, false, false, false, false, false, false, false, true , false, true , false, false, false, false, false, false, false, false, false, false, false, false, false, false, false, false, false, true 
|true , false, false, false, false, false, false, false, false, false, false, false, false, false, false, true , false, false, false, false, false, false, false, false, true , true , false, false, false, false, false, false, true , false, false, false, true , true , false, false, true , false, false, false, true , false, false, false, false, false, false, true , false, true , true , false, true , false, false, false, true , false, false, false, true , false, false, false, false, false, true , false, true , true , false, false, false, true , false, false, true , false, false, false, false, true , false, false, false, false, false, false, false, false, false, false, false, false, false, true , false, true , false, false, false, false, false, false, false, false, false, false, false, false, false, false, false, false, false, true 
|true , false, false, false, false, false, true , false, false, false, false, false, false, false, false, true , false, false, false, false, false, false, false, false, true , true , false, false, false, false, false, true , true , false, false, false, true , true , false, false, true , false, false, false, true , false, false, true , false, false, false, true , false, true , true , false, true , false, false, false, true , true , false, false, true , false, false, false, false, false, true , false, true , true , false, false, false, true , false, false, true , false, false, false, false, true , false, false, false, false, false, false, false, false, false, false, false, false, false, true , false, true , true , false, false, false, false, false, false, false, false, false, false, false, false, false, false, false, false, true 
|true , false, false, false, false, false, true , false, false, false, false, false, false, false, true , false, false, false, false, false, false, false, false, false, false, false, false, false, false, false, false, true , true , false, false, false, false, true , false, false, true , false, false, true , true , false, false, true , false, false, false, true , false, true , true , false, false, false, false, false, true , true , false, false, true , false, false, false, false, false, true , false, true , true , false, false, false, true , false, false, true , false, false, false, false, false, false, false, false, false, false, false, false, false, false, false, false, false, false, true , false, true , true , false, false, false, false, false, false, false, true , false, false, false, false, false, false, false, false, true 
|true , false, false, false, false, false, true , false, false, false, false, false, false, false, true , false, false, false, false, false, false, false, false, false, false, false, false, false, false, false, false, true , true , false, false, false, false, true , false, false, true , false, false, true , true , false, false, true , false, false, false, true , false, true , true , false, false, false, false, false, true , true , false, false, true , false, false, false, false, false, true , false, true , true , false, false, false, true , false, false, true , false, false, false, false, false, false, false, false, false, false, false, false, false, false, false, false, false, false, true , false, true , true , false, false, false, false, false, false, false, true , false, false, false, false, false, false, false, false, true 
|true , false, false, false, false, false, true , false, false, false, false, false, false, false, true , false, false, false, false, false, false, false, false, false, false, false, false, false, false, false, false, true , true , false, false, false, false, true , false, false, true , false, false, true , true , false, false, false, false, false, false, true , false, true , true , false, false, false, false, false, true , false, false, false, false, false, false, false, false, false, true , false, true , true , false, false, false, true , false, false, true , false, false, false, false, false, false, false, false, false, false, false, false, false, false, false, false, false, false, true , false, true , false, false, false, false, false, false, false, false, true , false, false, false, false, false, false, false, false, true 
|false, false, false, false, false, false, false, false, false, false, false, false, true , false, false, false, false, false, false, false, false, false, false, false, false, false, false, false, false, false, false, false, false, false, false, false, false, true , false, false, false, false, false, false, true , false, false, true , false, false, false, false, false, false, false, false, false, false, false, false, false, false, false, false, false, false, false, false, false, false, true , false, false, false, false, false, false, false, false, false, false, false, false, false, false, false, false, false, false, false, false, false, false, false, false, false, false, false, false, true , false, false, false, false, false, false, false, false, false, false, false, false, false, false, false, false, false, false, false, true 
|false, true , false, false, true , false, false, false, false, false, false, false, true , false, false, false, false, true , false, true , false, false, false, false, false, false, false, true , false, true , false, true , false, false, false, false, false, true , false, false, false, false, false, true , true , false, false, true , false, false, false, false, false, false, false, false, false, false, false, true , false, false, false, true , false, false, false, false, false, false, true , false, false, true , true , false, false, true , false, false, true , false, false, false, false, false, true , false, false, false, false, false, false, false, false, false, false, false, false, true , false, false, false, false, true , false, false, false, false, false, false, false, false, false, false, false, false, false, false, true 
|false, true , false, false, true , false, false, true , false, true , false, false, true , false, true , false, false, true , false, true , false, false, false, false, false, false, false, true , false, true , false, true , false, false, false, false, false, true , false, false, false, false, false, true , true , true , false, true , false, false, false, true , false, false, false, false, false, false, true , true , false, false, false, true , false, false, false, false, false, false, true , false, false, true , true , false, false, true , false, false, true , false, true , false, false, false, true , false, false, false, false, false, false, false, false, false, false, false, false, true , false, false, false, false, true , false, false, false, true , false, false, false, true , false, false, false, false, false, false, true 
|false, true , false, false, true , false, false, true , false, true , false, false, true , false, true , false, false, true , false, true , false, false, false, false, false, false, false, true , false, true , false, true , false, false, false, false, false, false, false, false, false, false, false, true , false, true , false, true , false, false, false, true , false, false, false, false, false, false, true , true , false, false, false, true , false, false, false, false, false, false, true , false, false, true , true , false, false, true , false, false, true , false, true , false, false, false, true , false, false, false, false, false, false, false, false, false, false, false, false, true , false, false, false, false, true , false, false, false, true , false, false, false, true , false, false, false, false, false, false, true 
|false, false, false, false, true , false, false, true , false, true , false, false, true , false, true , false, false, true , false, false, false, false, false, false, false, false, false, false, false, false, false, false, false, false, false, false, false, false, false, false, false, false, false, false, false, true , false, false, false, false, false, true , false, false, false, false, false, false, true , false, false, false, false, false, false, false, false, false, false, false, false, false, false, true , true , false, false, false, false, false, true , false, true , false, false, false, true , false, false, false, false, false, false, false, false, false, false, false, false, true , false, false, false, false, false, false, false, false, true , false, false, false, true , false, false, false, false, false, false, true 
|false, true , false, false, false, false, false, false, true , false, false, false, true , false, false, false, false, true , false, true , false, false, false, true , false, true , false, false, false, false, false, false, false, false, false, false, false, false, false, false, false, false, false, false, false, false, false, false, false, false, true , false, false, false, false, false, false, false, false, false, true , false, true , false, false, false, false, false, true , false, false, false, false, false, false, false, true , false, false, false, false, false, true , true , false, false, false, false, true , false, false, false, false, false, false, false, true , false, true , true , false, true , false, false, true , false, false, false, false, false, false, false, true , false, false, false, false, true , true , true 
|false, true , false, false, false, false, false, false, true , false, false, false, true , false, false, false, false, true , false, true , false, false, false, true , false, true , false, false, false, false, false, false, false, false, false, false, false, false, false, false, false, false, false, false, false, false, false, false, false, false, true , false, false, false, false, false, false, false, false, false, true , false, true , false, false, false, false, false, true , false, false, false, false, false, false, false, true , false, false, false, false, false, true , true , false, false, false, false, true , false, false, false, false, false, false, false, true , false, true , true , false, true , false, false, true , false, false, false, false, false, false, false, true , false, false, false, false, true , true , true 
|false, true , false, false, false, false, false, false, true , false, false, false, true , false, false, false, false, true , false, true , false, false, false, true , false, true , false, false, false, false, false, false, false, false, false, false, false, false, false, false, false, false, false, false, false, false, false, false, false, false, true , false, false, false, false, false, false, false, false, false, true , false, true , false, false, false, false, false, true , false, false, false, false, false, false, false, true , false, false, false, false, false, true , true , false, false, false, false, true , false, false, false, false, false, false, false, true , false, true , true , false, true , false, false, true , false, false, false, false, false, false, false, true , false, false, false, false, true , true , true 
|false, false, false, false, false, false, false, false, false, false, false, false, false, false, false, false, false, true , false, true , false, false, false, false, false, true , false, false, false, false, false, false, false, false, false, false, false, false, false, false, false, false, false, false, false, false, false, false, false, false, false, false, false, false, false, false, false, false, false, false, false, false, true , false, false, false, false, false, true , false, false, false, false, false, false, false, false, false, false, false, false, false, false, false, false, false, false, false, false, false, false, false, false, false, false, false, true , false, true , true , false, true , false, false, false, false, false, false, false, false, false, false, false, false, false, false, false, false, false, true 
|false, false, false, false, false, false, false, false, false, false, false, false, false, false, false, false, false, false, false, false, false, false, false, false, false, false, false, false, false, false, false, false, false, false, false, false, false, false, false, false, false, false, false, false, false, false, false, false, false, false, false, false, false, false, false, false, false, false, false, false, false, false, false, false, false, false, false, false, false, false, false, false, false, false, false, false, false, false, false, false, false, false, false, false, false, false, false, false, false, false, false, false, false, false, false, false, false, false, false, false, false, false, false, false, false, false, false, false, false, false, false, false, false, false, false, false, false, false, false, false
|false, false, true , false, false, false, false, false, false, false, true , false, true , false, true , false, false, true , false, false, false, false, false, false, false, false, false, true , false, false, false, false, false, true , false, false, false, false, false, false, false, false, false, false, true , false, false, false, false, false, true , true , false, false, false, true , false, false, false, false, false, false, false, false, false, false, false, false, true , false, false, false, false, false, false, false, false, false, false, false, false, true , true , false, false, false, false, false, false, false, false, false, false, false, false, false, false, false, false, false, false, false, false, false, false, false, false, false, false, false, false, false, false, true , false, false, false, false, false, true 
|false, false, true , false, false, false, false, false, false, false, true , false, true , false, true , false, false, true , false, false, false, false, false, false, false, false, false, true , false, false, false, false, false, true , false, false, false, false, false, false, false, false, false, false, true , false, false, false, false, false, true , true , false, false, false, true , false, false, false, false, false, false, false, false, false, false, false, false, true , false, false, false, false, false, false, false, false, false, false, false, false, true , true , false, false, false, false, false, false, false, false, false, false, false, false, false, false, false, false, false, false, false, false, false, false, false, false, false, false, false, false, false, false, true , false, false, false, false, false, true 
|false, false, true , false, false, false, false, false, false, false, true , false, true , false, true , false, false, true , false, false, false, false, false, false, false, false, false, true , false, false, false, false, false, true , false, false, false, false, false, false, false, false, false, false, true , false, false, false, false, false, true , true , false, false, false, true , false, false, false, false, false, false, true , false, false, false, false, false, true , false, false, false, false, false, false, false, false, false, false, false, false, true , true , false, false, false, false, false, false, false, false, false, false, false, false, false, false, false, false, false, false, false, false, false, false, false, true , false, false, false, false, false, false, true , false, false, false, false, false, true 
|false, false, true , false, false, false, false, false, false, false, true , false, true , false, false, false, false, true , false, false, false, false, false, false, false, false, false, false, true , false, false, false, false, true , false, false, false, false, false, false, false, false, false, false, false, false, false, false, false, false, true , true , false, false, false, true , false, false, false, false, false, false, true , false, false, false, false, false, false, false, false, false, false, false, false, false, false, false, false, false, false, true , true , false, false, false, false, false, false, false, false, false, false, false, false, false, false, false, false, false, false, false, false, false, false, false, true , false, false, false, false, false, false, true , false, false, false, false, false, true 
|false, false, true , false, false, false, false, false, false, false, true , false, true , false, false, false, false, true , false, false, false, false, false, false, false, false, false, false, true , false, false, false, false, true , false, false, false, false, false, false, false, false, false, false, false, false, false, false, false, false, true , true , false, false, false, true , false, false, false, false, false, false, true , false, false, false, false, false, false, false, false, false, false, false, false, false, false, false, false, false, false, true , true , false, false, false, false, false, false, false, false, false, false, false, false, false, false, false, false, false, false, false, false, false, false, false, true , false, false, false, false, false, false, true , false, false, false, false, false, true 
|false, false, true , false, false, false, false, false, false, false, true , false, true , false, false, false, false, false, false, false, false, false, false, false, false, false, false, false, true , false, false, false, false, true , false, false, false, false, false, false, false, false, false, false, false, false, false, false, false, false, true , true , false, false, false, true , false, false, false, false, false, false, false, false, false, false, false, false, false, false, false, false, false, false, false, false, false, false, false, false, false, true , true , false, false, false, false, false, false, false, false, false, false, false, false, false, false, false, false, false, false, false, false, false, false, false, false, false, false, false, false, false, false, true , false, false, false, false, false, true 
|false, false, false, false, false, false, false, false, false, false, true , false, true , false, false, false, false, false, false, false, false, false, false, false, false, false, false, false, false, false, false, false, false, true , false, false, false, false, false, false, false, false, false, false, true , false, false, false, false, false, false, false, false, false, false, false, false, false, false, false, false, false, false, false, false, false, false, false, false, false, false, false, false, false, false, false, false, false, false, false, false, false, true , false, false, false, false, false, false, false, false, false, false, false, false, false, false, false, false, false, false, false, false, false, true , false, true , false, false, false, false, false, false, true , false, false, false, false, false, true 
|false, false, true , false, false, false, false, false, false, false, true , false, true , false, false, false, false, false, false, false, false, false, false, false, false, false, false, true , false, false, false, false, false, true , false, false, false, false, false, false, false, false, false, false, true , false, false, false, false, false, false, false, false, false, false, false, false, false, false, false, false, false, false, false, false, false, false, false, false, false, false, false, false, false, false, false, false, false, false, false, false, false, true , false, false, false, false, false, false, false, false, false, false, false, false, false, false, false, false, false, false, false, true , false, true , false, true , false, true , false, false, false, false, true , false, false, false, false, false, true 
|false, true , true , false, false, false, false, false, false, false, true , false, true , false, false, false, false, false, false, false, false, false, false, true , false, false, false, true , false, false, false, false, true , true , false, false, false, false, false, false, false, false, false, false, true , false, false, false, false, false, false, false, false, false, false, false, false, false, false, false, false, false, false, false, false, false, false, false, false, true , false, false, false, false, false, false, false, false, false, false, false, false, true , true , false, true , false, false, true , false, false, false, false, false, false, false, false, false, false, false, false, true , true , false, true , true , true , false, true , false, false, false, false, true , false, false, false, false, true , true 
|false, true , true , false, false, false, false, false, false, false, false, false, true , false, false, false, false, false, false, false, false, false, false, true , false, false, false, true , false, false, false, false, true , false, false, false, false, false, false, false, false, false, false, false, false, false, false, false, false, false, false, false, false, false, false, false, false, false, false, false, false, false, false, false, false, false, false, false, false, true , false, false, false, false, false, false, false, false, false, false, false, false, false, true , false, true , false, false, true , false, false, false, false, false, false, false, false, false, false, false, false, true , true , false, true , true , true , false, true , false, false, false, false, true , false, false, false, false, true , true 
|false, true , false, false, false, false, false, false, false, false, false, false, true , false, false, false, false, false, false, false, false, false, false, true , false, false, false, false, false, false, false, false, true , false, false, false, false, false, false, false, false, false, false, false, false, false, false, false, false, false, false, false, false, false, false, false, false, false, false, false, false, false, false, false, false, false, false, false, false, true , false, false, false, false, false, false, false, false, false, false, false, false, false, true , false, true , false, false, true , false, false, false, false, false, false, false, false, false, false, false, false, true , false, false, true , true , true , false, true , false, false, false, false, true , false, false, false, false, true , true 
|false, false, false, false, false, false, false, false, true , false, true , false, true , false, false, false, false, false, false, false, false, false, false, true , false, false, false, false, false, false, false, false, true , false, false, false, false, false, false, false, false, false, false, false, false, false, false, false, false, false, false, false, false, false, false, false, false, false, false, false, false, false, false, true , false, false, false, false, false, true , false, false, false, false, false, false, false, false, false, false, false, false, false, false, false, false, false, false, false, false, false, false, false, false, false, false, false, false, false, false, false, true , false, false, true , false, true , true , false, false, false, false, false, true , false, false, false, false, false, true 
|false, false, false, false, false, false, false, false, true , false, true , false, true , false, false, false, false, false, false, false, false, false, false, true , false, false, false, false, false, false, false, false, true , false, false, false, false, false, false, false, false, false, false, false, false, false, false, false, false, false, false, false, false, false, false, false, false, false, false, false, false, false, false, true , false, false, false, false, false, true , false, false, false, false, false, false, false, false, false, false, false, false, false, false, false, false, false, false, false, false, false, false, false, false, false, false, false, false, false, false, false, true , false, false, true , false, true , true , false, false, false, false, false, true , false, false, false, false, false, true 
|false, false, false, false, false, false, false, false, true , false, true , false, true , false, false, false, false, false, false, false, false, false, false, true , false, false, false, false, false, false, false, false, true , false, false, false, false, false, false, false, false, false, false, false, false, false, false, false, false, false, false, false, false, false, false, false, false, false, false, false, false, false, false, true , false, false, false, false, false, true , false, false, false, false, false, false, false, false, false, false, false, false, false, false, false, false, false, false, false, false, false, false, false, false, false, false, false, false, false, false, false, true , false, false, true , false, true , true , false, false, false, false, false, true , false, false, false, false, false, true 
|false, false, false, false, false, false, false, false, false, false, true , false, true , false, false, false, false, false, false, false, false, false, false, false, false, false, false, false, false, false, false, false, false, false, false, false, false, false, false, false, false, false, false, false, false, false, false, false, false, false, false, false, false, false, false, false, false, false, false, false, false, false, false, false, false, false, false, false, false, false, false, false, false, false, false, false, false, false, false, false, false, false, false, false, false, false, false, false, false, false, false, false, false, false, false, false, false, false, false, false, false, false, false, false, false, false, false, false, false, false, false, false, false, false, false, false, false, false, false, true 
|];
