% Real instance from AcademiAPP, period 5 (Febrero 2024 - Junio 2024).
% Generated by scripts/academiapp/make_instances.py from the CSV
% snapshot. Enrollment caps: room-proxy (the API does not
% publish them); subject resource requirements are inferred from the
% room the campus used. Both are approximations, not campus data.
% Availability repair: none. The schedule the campus ran
% violates the model's hard constraints (teacher clashes 0, rooms double-booked 22, same-cohort overlaps 19, hours taught outside the
% declared availability 15), so
% this instance can be unsatisfiable for reasons present in the data.

diurno = {1, 2, 3, 4, 5, 6, 7, 8, 9, 10, 11, 12, 17, 18, 19, 20, 21, 22, 23, 24, 25, 26, 27, 28, 33, 34, 35, 36, 37, 38, 39, 40, 41, 42, 43, 44, 49, 50, 51, 52, 53, 54, 55, 56, 57, 58, 59, 60, 65, 66, 67, 68, 69, 70, 71, 72, 73, 74, 75, 76, 81, 82, 83, 84, 85, 86, 87, 88, 89, 90, 91, 92};
nocturno = {13, 14, 15, 16, 29, 30, 31, 32, 45, 46, 47, 48, 61, 62, 63, 64, 77, 78, 79, 80, 93, 94, 95, 96};
H = 96;
asignaturas = 315;
docentes = 121;

A=[|1, 6, 122, 50, 0, 3
|1, 9, 123, 50, 0, 4
|1, 6, 124, 50, 0, 3
|1, 6, 125, 50, 0, 3
|1, 6, 126, 52, 0, 3
|1, 7, 127, 50, 0, 3
|1, 7, 128, 50, 0, 3
|1, 7, 129, 50, 0, 4
|1, 7, 130, 50, 0, 4
|1, 7, 131, 50, 0, 3
|1, 8, 132, 51, 0, 3
|1, 8, 133, 50, 0, 3
|1, 8, 134, 50, 0, 1
|1, 8, 134, 51, 0, 1
|1, 9, 135, 50, 0, 3
|1, 8, 136, 50, 0, 3
|1, 8, 137, 50, 0, 3
|1, 9, 138, 50, 0, 2
|1, 9, 139, 50, 0, 3
|1, 9, 140, 50, 0, 3
|1, 10, 141, 50, 0, 3
|2, 1, 176, 50, 0, 3
|2, 1, 177, 50, 0, 3
|2, 1, 179, 51, 0, 3
|2, 1, 180, 52, 0, 3
|2, 1, 181, 50, 0, 3
|2, 1, 182, 50, 0, 3
|2, 2, 183, 50, 1, 3
|2, 2, 184, 50, 1, 3
|2, 2, 185, 50, 1, 3
|2, 2, 186, 50, 1, 3
|2, 2, 188, 50, 0, 3
|2, 3, 190, 51, 0, 3
|2, 3, 191, 50, 0, 3
|2, 3, 192, 50, 0, 3
|2, 3, 194, 50, 0, 3
|2, 3, 195, 50, 0, 3
|2, 3, 196, 53, 0, 4
|1, 1, 2, 50, 0, 5
|1, 1, 2, 51, 0, 5
|2, 6, 210, 50, 1, 3
|2, 6, 211, 50, 1, 3
|2, 6, 212, 50, 1, 3
|2, 6, 213, 50, 1, 3
|2, 6, 214, 50, 1, 3
|2, 6, 215, 50, 0, 3
|2, 7, 216, 51, 0, 3
|2, 7, 217, 50, 0, 3
|2, 7, 218, 50, 0, 3
|2, 7, 219, 50, 0, 3
|2, 7, 220, 50, 0, 3
|2, 7, 221, 51, 0, 3
|2, 7, 222, 50, 0, 3
|2, 8, 223, 51, 1, 3
|2, 8, 224, 50, 1, 3
|2, 8, 225, 52, 1, 3
|2, 8, 226, 50, 0, 3
|2, 8, 227, 50, 1, 3
|2, 10, 231, 50, 1, 3
|5, 1, 236, 50, 0, 3
|5, 1, 236, 51, 0, 3
|5, 1, 239, 50, 0, 3
|5, 1, 239, 51, 0, 3
|5, 1, 240, 50, 0, 3
|5, 1, 240, 51, 0, 3
|5, 1, 243, 50, 0, 3
|5, 1, 243, 51, 0, 3
|5, 1, 245, 50, 0, 3
|5, 3, 247, 50, 0, 3
|5, 3, 247, 51, 0, 3
|5, 3, 248, 50, 0, 3
|5, 3, 249, 50, 0, 3
|5, 3, 250, 50, 0, 4
|5, 3, 250, 51, 0, 4
|5, 5, 254, 51, 0, 3
|5, 5, 256, 50, 0, 4
|5, 5, 258, 50, 0, 4
|5, 5, 260, 50, 0, 4
|5, 5, 262, 50, 0, 4
|5, 8, 274, 50, 0, 3
|3, 2, 290, 51, 0, 3
|3, 2, 291, 52, 0, 5
|3, 2, 293, 50, 0, 5
|3, 2, 295, 50, 0, 3
|3, 2, 295, 51, 0, 3
|3, 8, 305, 50, 0, 3
|3, 8, 306, 50, 0, 3
|3, 8, 306, 51, 0, 3
|3, 8, 307, 50, 0, 3
|3, 8, 308, 50, 0, 3
|3, 8, 309, 50, 0, 4
|3, 8, 310, 50, 0, 6
|3, 8, 310, 51, 0, 6
|3, 8, 311, 51, 0, 3
|3, 8, 312, 50, 0, 2
|3, 4, 313, 50, 0, 5
|4, 2, 318, 50, 0, 4
|4, 2, 319, 50, 0, 3
|4, 2, 320, 50, 0, 3
|4, 2, 321, 50, 0, 4
|4, 2, 321, 51, 0, 4
|4, 2, 322, 50, 0, 3
|6, 1, 382, 51, 0, 3
|6, 1, 383, 50, 0, 3
|6, 1, 384, 51, 0, 3
|6, 1, 385, 51, 0, 3
|6, 1, 387, 51, 0, 3
|6, 3, 389, 50, 0, 3
|6, 3, 390, 50, 0, 3
|6, 3, 391, 50, 0, 3
|6, 3, 392, 51, 0, 3
|6, 3, 393, 50, 0, 3
|6, 3, 394, 51, 0, 3
|6, 3, 395, 50, 0, 4
|6, 6, 401, 50, 1, 3
|6, 7, 403, 50, 0, 3
|6, 7, 404, 50, 0, 3
|6, 7, 405, 50, 0, 3
|6, 7, 406, 50, 0, 3
|6, 7, 407, 50, 0, 3
|6, 7, 408, 50, 0, 3
|6, 7, 409, 50, 0, 3
|6, 2, 410, 51, 1, 3
|6, 2, 411, 51, 1, 3
|6, 2, 412, 50, 1, 3
|6, 2, 414, 50, 0, 3
|6, 2, 415, 51, 1, 3
|6, 6, 422, 50, 1, 3
|6, 8, 423, 50, 1, 3
|6, 6, 424, 50, 0, 3
|6, 6, 427, 50, 1, 3
|6, 8, 428, 51, 1, 3
|6, 8, 429, 51, 1, 3
|6, 8, 430, 51, 0, 3
|6, 10, 431, 50, 1, 3
|6, 8, 432, 51, 1, 3
|6, 8, 433, 50, 1, 3
|6, 10, 434, 51, 1, 3
|6, 10, 435, 51, 1, 3
|6, 10, 435, 52, 0, 3
|6, 10, 437, 51, 1, 3
|6, 10, 438, 51, 1, 3
|6, 10, 439, 51, 1, 3
|9, 6, 448, 50, 1, 4
|9, 6, 449, 50, 1, 4
|9, 6, 450, 50, 1, 4
|9, 6, 451, 50, 1, 4
|8, 1, 459, 54, 0, 5
|8, 1, 460, 50, 0, 3
|8, 1, 460, 51, 0, 3
|8, 1, 461, 51, 0, 2
|8, 1, 462, 50, 0, 3
|8, 1, 462, 53, 0, 3
|8, 3, 463, 51, 0, 3
|8, 3, 463, 52, 0, 3
|8, 3, 464, 51, 0, 4
|8, 3, 465, 52, 0, 3
|8, 3, 466, 50, 0, 4
|8, 2, 467, 51, 1, 5
|8, 2, 469, 50, 1, 3
|8, 2, 470, 50, 0, 4
|1, 3, 483, 52, 0, 6
|1, 3, 483, 53, 0, 6
|4, 2, 484, 50, 0, 3
|8, 1, 485, 51, 0, 2
|2, 10, 488, 50, 1, 3
|1, 4, 539, 52, 0, 5
|1, 4, 541, 51, 0, 4
|1, 4, 557, 50, 0, 4
|1, 4, 558, 50, 0, 3
|1, 4, 559, 50, 0, 4
|1, 8, 560, 50, 0, 3
|3, 4, 618, 50, 0, 4
|1, 1, 63, 50, 0, 3
|1, 1, 63, 53, 0, 3
|1, 1, 64, 52, 0, 2
|1, 1, 64, 53, 0, 2
|1, 1, 66, 50, 0, 3
|1, 1, 66, 51, 0, 3
|1, 1, 66, 52, 0, 3
|1, 1, 66, 53, 0, 3
|1, 1, 67, 51, 0, 3
|1, 1, 67, 52, 0, 3
|1, 1, 67, 54, 0, 3
|1, 1, 67, 55, 0, 3
|1, 1, 69, 50, 0, 2
|1, 1, 69, 51, 0, 2
|1, 1, 70, 51, 0, 4
|1, 1, 70, 54, 0, 4
|1, 2, 72, 50, 0, 5
|1, 2, 73, 52, 0, 4
|1, 2, 74, 51, 0, 3
|1, 2, 74, 53, 0, 3
|1, 2, 76, 51, 0, 4
|1, 2, 78, 51, 0, 3
|1, 2, 786, 50, 0, 5
|1, 4, 787, 50, 0, 3
|1, 4, 787, 51, 0, 3
|1, 3, 80, 50, 0, 3
|2, 5, 804, 50, 0, 3
|2, 5, 805, 50, 0, 3
|2, 5, 806, 50, 0, 3
|2, 5, 807, 50, 0, 3
|2, 5, 808, 54, 0, 4
|2, 5, 809, 50, 0, 3
|1, 3, 81, 50, 0, 4
|2, 2, 811, 51, 0, 3
|2, 4, 812, 50, 1, 3
|2, 4, 813, 50, 1, 3
|2, 4, 814, 50, 0, 3
|2, 4, 815, 50, 1, 3
|2, 4, 816, 51, 1, 3
|2, 4, 817, 54, 0, 4
|2, 4, 818, 50, 1, 3
|1, 3, 82, 50, 0, 5
|2, 10, 824, 50, 1, 3
|6, 4, 826, 50, 1, 3
|6, 4, 827, 51, 0, 3
|6, 4, 828, 51, 1, 4
|6, 4, 829, 50, 1, 3
|1, 3, 83, 52, 0, 4
|6, 4, 830, 51, 1, 3
|6, 4, 831, 50, 1, 3
|6, 4, 832, 50, 1, 3
|8, 5, 834, 50, 0, 4
|8, 5, 835, 50, 0, 5
|8, 6, 836, 50, 0, 3
|8, 5, 837, 50, 0, 3
|8, 3, 838, 52, 0, 4
|8, 1, 839, 52, 0, 3
|1, 3, 84, 50, 0, 3
|8, 2, 840, 52, 1, 3
|8, 4, 841, 50, 1, 3
|8, 4, 842, 53, 1, 4
|8, 4, 843, 53, 1, 4
|8, 4, 844, 50, 1, 4
|8, 4, 845, 52, 1, 4
|8, 6, 846, 50, 1, 3
|5, 1, 847, 54, 0, 3
|5, 3, 848, 50, 0, 3
|5, 7, 849, 50, 0, 3
|5, 7, 850, 50, 0, 4
|5, 7, 851, 50, 0, 3
|5, 7, 853, 50, 0, 4
|12, 1, 855, 50, 1, 2
|12, 1, 856, 51, 1, 3
|12, 1, 857, 50, 1, 2
|12, 1, 858, 53, 1, 5
|12, 1, 859, 50, 1, 3
|4, 2, 860, 50, 0, 6
|4, 2, 860, 51, 0, 6
|4, 4, 861, 50, 0, 6
|4, 4, 861, 51, 0, 6
|4, 4, 862, 50, 0, 3
|4, 4, 863, 50, 0, 3
|4, 4, 864, 50, 0, 4
|4, 4, 865, 50, 0, 4
|4, 4, 865, 51, 0, 4
|4, 4, 867, 50, 0, 3
|11, 2, 870, 50, 0, 4
|11, 2, 871, 50, 0, 3
|11, 2, 872, 50, 0, 4
|11, 2, 873, 50, 0, 2
|11, 2, 874, 50, 0, 3
|1, 6, 875, 50, 0, 3
|1, 5, 878, 50, 0, 4
|1, 5, 879, 51, 0, 3
|1, 5, 880, 51, 0, 4
|1, 5, 881, 50, 0, 3
|1, 5, 882, 51, 0, 3
|1, 5, 883, 51, 0, 4
|3, 4, 884, 50, 0, 3
|3, 4, 885, 50, 0, 3
|3, 4, 887, 50, 0, 3
|3, 4, 888, 50, 0, 3
|3, 6, 889, 50, 0, 3
|3, 5, 890, 50, 0, 4
|3, 6, 891, 50, 0, 3
|3, 6, 891, 51, 0, 3
|3, 6, 892, 51, 0, 3
|3, 6, 893, 50, 0, 3
|3, 6, 894, 50, 0, 3
|3, 6, 895, 50, 0, 3
|3, 10, 896, 50, 1, 3
|6, 9, 897, 50, 0, 3
|6, 9, 898, 50, 0, 3
|6, 9, 899, 50, 0, 3
|6, 9, 900, 50, 0, 3
|6, 9, 901, 50, 0, 3
|6, 1, 902, 50, 0, 3
|6, 5, 903, 50, 0, 3
|6, 5, 904, 51, 0, 4
|6, 5, 905, 51, 0, 3
|6, 5, 906, 50, 0, 3
|6, 5, 907, 50, 0, 3
|6, 5, 908, 50, 0, 3
|6, 5, 909, 50, 0, 3
|2, 9, 910, 50, 0, 3
|5, 3, 911, 50, 0, 3
|5, 3, 911, 51, 0, 3
|5, 4, 912, 50, 0, 4
|8, 2, 914, 51, 1, 5
|3, 2, 915, 53, 0, 3
|3, 2, 916, 52, 0, 5
|3, 4, 918, 50, 0, 3
|2, 2, 921, 52, 1, 3
|1, 2, 923, 51, 0, 3
|6, 2, 925, 50, 1, 3
|6, 6, 926, 50, 1, 3
|2, 5, 930, 51, 0, 3
|8, 5, 931, 50, 0, 3
|11, 2, 932, 54, 0, 3
|2, 3, 933, 50, 0, 3
|2, 8, 934, 51, 1, 3
|5, 7, 935, 50, 0, 3
|];
Da=[{1, 226},
{2, 168, 271},
{3, 158, 233, 267},
{4, 15},
{5, 108, 171, 212, 234},
{6, 18, 149, 249},
{7, 162, 163, 265},
{8, 199},
{9, 106, 165, 172, 238, 270},
{10, 16, 228},
{11, 150, 178, 179, 237},
{12, 227},
{13, 14, 55},
{17, 45},
{19, 269},
{20, 152, 170, 225, 266},
{21, 186, 197},
{22, 167, 247},
{23, 84, 85, 210},
{24, 58, 109},
{25, 305},
{26, 110, 121},
{27, 62, 63, 127, 280},
{28, 96, 268},
{29, 54},
{30, 195, 208, 240, 303, 312},
{31, 48, 115, 120},
{32, 37, 113, 135, 218, 309},
{33, 51, 124, 285},
{34, 310},
{35, 69, 70, 79, 231, 241},
{36},
{38, 204, 213, 301},
{39, 145, 146, 248},
{40, 159, 190, 215},
{41},
{42, 125, 216},
{43},
{44, 202, 222},
{46, 224},
{47, 205},
{49, 200, 298},
{50, 166, 314},
{52},
{53, 286},
{56, 131},
{57, 293},
{59},
{60, 61},
{64, 65, 77, 242},
{66, 67, 72},
{68, 306, 307, 308},
{71, 76, 243},
{73, 74, 80},
{75, 244},
{78},
{81, 174, 175, 239},
{82, 148},
{83},
{86, 272, 273},
{87, 88, 283},
{89},
{90, 275},
{91},
{92, 93, 94, 262},
{95, 281},
{97, 196},
{98},
{99, 101, 256},
{100},
{102, 254},
{103, 123},
{104, 138, 203},
{105},
{107, 112},
{111, 214},
{114, 292},
{116, 133},
{117, 132},
{118, 128, 137},
{119, 211, 217, 291},
{122, 143},
{126, 313},
{129, 294},
{130, 139, 140, 288},
{134, 142},
{136, 201, 209, 295},
{141, 289},
{144},
{147},
{151, 176, 177, 223, 245},
{153, 184, 185, 192, 193, 232},
{154, 155, 157, 198},
{156, 161, 182, 183, 187, 194},
{160, 311},
{164},
{169, 219},
{173, 189, 277},
{180, 181},
{188, 191, 221, 229, 235},
{206, 236},
{207, 261, 290},
{220},
{230},
{246},
{250, 253},
{251, 252},
{255, 257},
{258, 259},
{260},
{263},
{264},
{274},
{276},
{278, 279},
{282, 284},
{287, 297},
{296},
{299, 300},
{302, 304},
{315}
];
Ad=[1, 2, 3, 4, 5, 6, 7, 8, 9, 10, 11, 12, 13, 13, 4, 10, 14, 6, 15, 16, 17, 18, 19, 20, 21, 22, 23, 24, 25, 26, 27, 28, 29, 30, 31, 32, 28, 33, 34, 35, 36, 37, 38, 39, 14, 40, 41, 27, 42, 43, 29, 44, 45, 25, 13, 46, 47, 20, 48, 49, 49, 23, 23, 50, 50, 51, 51, 52, 31, 31, 53, 51, 54, 54, 55, 53, 50, 56, 31, 54, 57, 58, 59, 19, 19, 60, 61, 61, 62, 63, 64, 65, 65, 65, 66, 24, 67, 68, 69, 70, 69, 71, 72, 73, 74, 9, 75, 5, 20, 22, 76, 75, 28, 77, 27, 78, 79, 80, 81, 27, 22, 82, 72, 29, 37, 83, 23, 80, 84, 85, 46, 79, 78, 86, 28, 87, 80, 73, 85, 85, 88, 86, 82, 89, 34, 34, 90, 58, 6, 11, 91, 16, 92, 93, 93, 94, 93, 3, 35, 95, 94, 7, 7, 96, 9, 43, 18, 2, 97, 16, 5, 9, 98, 57, 57, 91, 91, 11, 11, 99, 99, 94, 94, 92, 92, 17, 94, 100, 98, 35, 100, 92, 92, 94, 26, 67, 17, 93, 8, 42, 87, 39, 73, 33, 41, 101, 102, 26, 87, 19, 81, 5, 33, 76, 35, 37, 81, 28, 97, 103, 100, 39, 91, 40, 16, 1, 12, 10, 100, 104, 31, 92, 3, 5, 100, 101, 11, 9, 57, 26, 31, 50, 53, 55, 91, 105, 18, 34, 6, 106, 107, 107, 106, 71, 108, 69, 108, 109, 109, 110, 102, 65, 111, 112, 7, 16, 3, 24, 15, 9, 2, 60, 60, 113, 63, 114, 98, 115, 115, 23, 66, 116, 61, 116, 29, 45, 117, 85, 88, 102, 81, 77, 47, 84, 87, 118, 117, 42, 119, 119, 33, 120, 26, 120, 21, 52, 52, 52, 28, 30, 95, 26, 83, 43, 121];
D=[|false, false, false, false, false, false, false, false, false, false, false, false, false, false, false, false, false, false, false, false, false, false, false, false, false, false, false, false, false, false, false, false, false, false, false, false, false, false, false, false, false, false, false, false, false, false, false, false, false, false, false, false, false, false, false, false, false, false, false, false, false, false, false, false, false, false, false, false, false, false, false, false, false, false, false, false, false, false, false, false, false, false, false, false, false, false, false, false, false, false, false, false, false, false, false, false, false, false, false, false, false, false, false, false, false, false, false, false, false, false, false, false, false, false, false, false, false, false, false, false, false
|false, false, true , true , false, false, true , false, false, true , false, false, false, false, false, false, false, false, false, false, true , false, false, false, false, false, false, false, false, false, false, false, true , false, true , false, false, false, false, false, false, false, true , false, false, false, false, false, false, false, true , false, false, false, false, false, true , true , false, false, false, false, false, true , false, false, false, false, false, false, false, false, false, false, false, false, true , false, true , false, false, false, false, false, false, false, false, false, false, false, true , true , true , false, false, true , false, false, false, true , false, false, false, false, false, false, false, false, false, false, false, false, false, false, false, false, false, true , false, false, false
|false, false, true , true , false, false, true , false, false, true , false, false, false, false, false, false, false, false, false, false, true , false, false, false, false, false, false, false, false, false, false, false, true , false, true , false, false, false, false, false, false, false, true , false, false, false, false, false, false, false, true , false, false, false, false, false, true , true , false, false, false, false, false, true , false, false, false, false, false, false, false, false, false, false, false, false, true , false, true , false, false, false, false, false, false, false, false, false, false, false, true , true , true , false, false, true , false, false, false, true , false, false, false, false, false, false, false, false, false, false, false, false, false, false, false, false, false, true , false, false, false
|false, false, true , true , false, false, true , false, false, true , false, false, false, false, false, false, false, false, false, false, true , false, false, false, false, false, false, false, false, false, false, false, true , false, true , false, false, false, false, false, false, false, true , false, false, false, false, false, false, false, true , false, false, false, false, false, true , true , false, false, false, false, false, true , false, false, true , false, false, false, false, false, false, false, false, false, true , false, true , false, true , false, false, false, false, false, false, false, false, false, true , true , true , false, false, true , false, false, false, true , false, true , false, false, false, false, false, false, false, false, false, false, false, false, false, false, false, true , false, false, false
|false, false, true , false, false, false, true , false, false, true , false, false, false, false, false, false, false, false, false, false, false, false, false, false, false, false, false, false, false, false, false, false, false, false, true , false, false, false, false, false, false, false, false, false, false, false, false, false, false, false, true , false, false, false, false, false, false, false, false, false, false, false, false, true , false, true , true , false, false, false, false, false, false, false, false, false, false, false, false, false, true , false, false, false, false, false, false, false, false, false, true , false, true , false, false, true , false, false, false, true , false, true , false, false, false, false, false, false, false, false, false, false, false, false, false, false, false, false, false, false, false
|false, false, true , false, false, false, true , false, false, true , false, false, false, false, false, false, false, false, false, false, false, false, false, false, false, false, false, false, false, false, false, false, false, false, true , false, false, false, false, false, false, false, false, false, false, false, false, false, false, false, true , false, false, false, false, false, false, false, false, false, false, false, false, true , false, true , true , false, false, false, false, false, false, false, false, false, false, false, false, false, true , false, false, false, false, false, false, false, false, false, true , false, true , false, false, true , false, false, false, true , false, true , false, false, false, false, false, false, false, false, false, false, false, false, false, false, false, false, false, false, false
|false, false, true , false, false, false, true , false, false, true , false, false, false, false, false, false, false, false, false, false, false, false, false, false, false, false, false, false, false, false, false, false, false, false, true , false, false, false, false, false, false, false, false, false, false, false, false, false, false, false, true , false, false, false, false, false, false, false, false, false, false, false, false, false, false, true , false, false, false, false, false, false, false, false, false, false, false, false, false, false, false, false, false, false, false, false, false, false, false, false, true , false, true , false, false, true , false, false, false, true , false, false, false, false, false, false, false, false, false, false, false, false, false, false, false, false, false, false, false, false, false
|false, false, false, false, false, false, true , false, false, false, false, false, false, false, false, false, false, false, false, false, false, false, false, false, false, false, false, false, false, false, false, false, true , true , false, false, false, false, false, false, false, false, false, false, false, false, false, false, false, false, true , false, false, false, false, false, false, false, false, false, false, false, false, false, false, false, false, false, false, false, false, false, false, false, false, false, false, false, false, false, false, false, false, false, false, false, false, false, false, false, true , true , false, false, false, false, false, false, false, false, false, false, false, false, false, false, false, false, false, false, false, false, false, false, false, false, false, false, false, false, false
|false, false, true , false, false, false, true , false, false, true , false, false, true , false, false, false, false, false, false, false, false, false, false, false, false, false, true , false, false, false, false, false, true , true , true , false, false, false, true , false, false, false, false, false, false, false, false, false, false, false, true , false, false, false, false, false, false, false, false, false, false, false, false, false, false, false, false, false, false, false, false, false, false, false, false, false, false, true , false, false, true , false, false, true , false, false, false, false, false, false, true , true , true , false, false, false, false, false, false, false, false, false, false, false, false, false, false, false, false, false, false, false, false, false, false, false, false, false, false, true , false
|false, false, true , false, false, false, true , false, true , true , false, false, true , false, false, false, false, false, false, false, false, false, false, true , false, true , true , true , false, false, false, true , true , true , true , false, false, false, true , false, false, false, false, false, false, false, false, false, false, false, true , true , false, false, false, false, false, true , false, false, false, false, false, false, false, true , false, false, false, false, false, false, false, false, false, false, false, true , false, false, true , false, false, true , false, false, false, true , false, false, true , true , true , false, false, false, false, false, false, false, false, false, false, false, false, false, false, false, false, false, false, false, false, false, false, false, false, false, false, true , false
|false, false, true , false, false, false, true , false, true , true , false, false, true , false, false, false, false, false, false, false, false, false, false, true , false, true , true , true , false, false, false, true , false, true , true , false, false, false, true , false, false, false, false, false, false, false, false, false, false, false, false, true , false, false, false, false, false, true , false, false, false, false, false, false, false, true , false, false, false, false, false, false, false, false, false, false, false, true , false, false, true , false, false, true , false, false, false, true , false, false, true , true , true , false, false, false, false, false, false, false, false, false, false, false, false, false, false, false, false, false, false, false, false, false, false, false, false, false, false, true , false
|false, false, true , false, false, false, true , false, true , false, false, false, false, false, false, false, false, false, false, false, false, false, false, true , false, true , true , true , false, false, false, true , false, true , false, false, false, false, false, false, false, false, false, false, false, false, false, false, false, false, false, true , false, false, false, false, false, true , false, false, false, false, false, false, false, true , false, false, false, false, false, false, false, false, false, false, false, false, false, false, false, false, false, false, false, false, false, true , false, false, true , true , false, false, false, false, false, false, false, false, false, false, false, false, false, false, false, false, false, false, false, false, false, false, false, false, false, false, false, false, false
|false, false, true , false, false, false, true , false, false, true , false, false, true , true , false, false, false, false, false, false, false, false, true , false, true , false, true , false, false, false, false, false, false, true , true , false, true , false, false, false, false, false, false, false, false, false, false, false, false, false, true , true , false, false, false, false, false, false, false, false, false, false, false, false, false, false, false, false, false, false, false, false, false, false, false, false, false, true , true , false, false, false, false, true , false, false, true , true , true , false, true , true , true , false, false, false, false, false, false, true , true , false, false, false, false, false, false, false, false, false, false, false, false, false, false, true , false, false, false, true , false
|false, false, true , false, false, false, true , false, false, true , false, false, true , true , false, false, false, false, false, false, false, false, true , false, true , false, true , false, false, false, false, false, false, true , true , false, true , false, false, false, false, false, false, false, false, false, false, false, false, false, true , true , false, false, false, false, false, false, false, false, false, false, false, false, false, false, false, false, false, false, false, false, false, false, false, false, false, true , true , false, false, false, false, true , false, false, true , true , true , false, true , true , true , false, false, false, false, false, false, true , true , false, false, false, false, false, false, false, false, false, false, false, false, false, false, true , false, false, false, true , false
|false, false, true , false, false, false, true , false, false, true , false, false, true , true , false, false, false, false, false, false, false, false, true , false, true , false, true , false, false, false, false, false, false, true , true , false, true , false, false, false, false, false, false, false, false, false, false, false, false, false, true , true , false, false, false, false, false, false, false, false, false, false, false, false, false, false, false, false, false, false, false, false, false, false, false, false, false, true , true , false, false, false, false, true , false, false, true , true , true , false, true , true , true , false, false, false, false, false, false, true , true , false, false, false, false, false, false, false, false, false, false, false, false, false, false, true , false, false, false, true , false
|false, false, true , false, false, false, false, false, false, true , false, false, false, false, false, false, false, false, false, false, false, false, false, false, false, false, false, false, false, false, false, false, false, false, false, false, false, false, false, false, false, false, false, false, false, false, false, false, false, false, false, false, false, false, false, false, false, false, false, false, false, false, false, false, false, false, false, false, false, false, false, false, false, false, false, false, false, false, false, false, false, false, false, false, false, false, false, false, true , false, true , true , false, false, false, false, false, false, false, true , true , false, false, false, false, false, false, false, false, false, false, false, false, false, false, false, false, false, false, true , false
|false, false, false, false, false, false, false, false, false, false, false, false, false, false, false, false, false, false, false, false, false, false, false, false, false, false, false, false, false, false, false, false, false, false, false, false, false, false, false, false, false, false, false, false, false, false, false, false, false, false, false, false, false, false, false, false, false, false, false, false, false, false, false, false, false, false, false, false, false, false, false, false, false, false, false, false, false, false, false, false, false, false, false, false, false, false, false, false, false, false, false, false, false, false, false, false, false, false, false, false, false, false, false, false, false, false, false, false, false, false, false, false, false, false, false, false, false, false, false, false, false
|false, false, false, false, false, false, true , false, true , false, true , false, true , false, false, true , true , false, false, false, false, false, true , false, false, false, false, false, true , false, false, false, true , false, false, false, false, false, false, false, true , false, false, false, false, false, true , false, false, true , false, false, false, false, false, false, true , true , false, false, true , false, false, false, false, false, false, false, true , false, false, false, false, false, false, false, true , false, false, false, false, false, false, false, false, false, true , false, false, false, true , true , true , true , false, false, false, false, false, false, false, false, false, false, false, true , true , false, false, false, false, false, false, false, true , false, false, false, false, false, false
|false, false, false, false, false, false, true , false, true , false, true , false, true , false, false, true , true , false, false, false, false, false, true , false, false, false, false, false, true , false, false, false, true , false, false, false, false, false, false, false, true , false, false, false, false, false, true , false, false, true , false, false, false, false, false, false, true , true , false, false, true , false, false, false, false, false, false, false, true , false, false, false, false, false, false, false, true , false, false, false, false, false, false, false, false, false, true , false, false, false, true , true , true , true , false, false, false, false, false, false, false, false, false, false, false, true , true , false, false, false, false, false, false, false, true , false, false, false, false, false, false
|false, true , false, false, false, false, true , false, true , false, true , false, true , false, false, true , true , false, true , true , false, true , true , false, false, false, false, false, true , false, true , false, true , false, false, false, false, false, false, false, true , false, false, false, false, false, true , false, false, true , false, false, false, true , true , false, true , true , false, false, true , false, false, false, false, false, false, false, true , false, false, false, false, false, false, false, true , false, false, false, false, false, false, false, false, false, true , false, false, false, true , true , true , true , false, false, false, true , false, false, false, true , false, false, false, true , true , false, false, false, false, false, false, false, true , false, false, false, false, false, false
|true , true , false, false, false, false, true , false, false, false, true , false, true , false, false, true , true , false, true , true , false, true , false, false, false, false, false, false, true , false, true , false, true , false, true , false, false, false, false, false, false, false, false, false, false, false, false, false, false, true , false, false, false, true , true , false, false, true , false, false, false, true , false, false, false, false, false, false, true , false, false, false, false, false, false, false, false, false, false, false, false, false, false, false, false, false, false, false, false, false, true , true , true , false, false, true , false, true , false, false, false, true , false, false, false, true , true , false, false, false, true , false, false, false, true , false, false, false, false, true , false
|true , true , false, false, false, false, true , false, false, false, true , false, true , false, false, true , true , false, true , true , false, true , false, false, false, false, false, false, true , false, true , false, true , false, true , false, false, false, false, false, false, false, false, false, false, false, false, false, false, true , false, false, false, true , true , false, false, true , false, false, false, true , false, false, false, false, false, false, true , false, false, false, false, false, false, false, false, false, false, false, false, false, false, false, false, false, false, false, false, false, true , true , true , false, false, true , false, true , false, false, false, true , false, false, false, true , true , false, false, false, true , false, false, false, true , false, false, false, false, true , false
|true , true , false, false, false, false, true , false, false, false, true , false, true , false, false, true , true , false, false, false, false, true , false, false, false, false, false, false, true , false, false, false, false, false, true , false, false, false, false, false, false, false, false, false, false, false, false, false, false, true , false, false, false, false, false, false, false, true , false, false, false, true , false, false, false, false, false, false, false, false, false, false, false, false, false, false, false, false, false, false, false, false, false, false, false, false, false, false, false, false, true , true , true , false, false, true , false, true , false, false, false, false, false, false, false, true , true , false, false, false, true , false, false, false, true , false, false, false, false, true , false
|false, false, false, false, false, false, true , false, false, false, false, false, false, false, false, false, false, false, false, false, false, false, false, false, false, false, false, false, false, false, false, false, false, false, false, false, false, false, false, false, false, false, false, false, false, false, false, false, false, false, false, false, false, false, true , false, false, false, false, false, false, false, false, false, false, false, false, false, false, false, false, false, false, false, false, false, false, false, false, false, false, false, false, false, false, false, false, false, false, false, true , true , false, false, false, true , true , true , false, true , false, false, false, false, false, false, false, false, false, false, false, false, false, false, false, false, false, false, false, false, false
|false, false, false, false, true , false, true , false, false, false, false, true , false, false, false, false, false, false, false, false, false, true , false, false, false, false, true , false, true , false, true , false, false, false, true , false, false, false, false, false, false, false, false, false, false, false, false, false, false, true , false, false, false, false, true , false, false, false, false, false, true , false, false, false, false, false, false, false, false, false, false, false, true , false, false, true , false, false, false, false, false, false, false, false, false, false, false, false, false, false, true , true , true , false, false, true , true , true , false, true , false, false, false, false, false, false, false, true , false, false, false, false, false, false, false, false, false, false, false, false, false
|false, false, false, false, true , false, true , false, false, false, false, true , false, false, false, false, false, false, true , false, false, true , false, false, false, true , true , false, true , false, true , false, false, false, true , false, false, false, false, false, false, false, false, false, true , false, false, false, false, true , false, true , false, false, true , false, false, true , false, false, true , false, false, false, false, false, false, false, false, false, false, false, true , true , false, true , false, true , false, true , false, false, false, false, false, false, false, true , false, false, true , true , true , false, false, true , true , true , false, true , false, false, false, false, false, false, false, true , false, false, false, true , false, false, false, false, false, false, false, false, false
|false, false, false, false, true , false, true , false, false, false, false, true , false, false, false, false, false, false, true , false, false, true , false, false, false, true , true , false, true , false, true , false, false, false, true , false, false, false, false, false, false, false, false, false, true , false, false, false, false, true , false, true , false, false, true , false, false, true , false, false, true , false, false, false, false, false, false, false, false, false, false, false, true , true , false, true , false, true , false, true , false, false, false, false, false, false, false, true , false, false, false, true , true , false, false, false, true , true , false, true , false, false, false, false, false, false, false, true , false, false, false, true , false, false, false, false, false, false, false, false, false
|false, false, false, false, false, false, false, false, false, false, false, true , false, false, false, false, false, false, true , false, false, false, false, false, false, true , false, false, true , false, false, false, false, false, false, false, false, false, false, false, false, false, false, false, true , false, false, false, false, true , false, true , false, false, true , false, false, true , false, false, false, false, false, false, false, false, false, false, false, false, false, false, false, true , false, false, false, true , false, true , false, false, false, false, false, false, false, true , false, false, false, true , false, false, false, false, false, true , false, false, false, false, false, false, false, false, false, false, false, false, false, true , false, false, false, false, false, false, false, false, false
|false, false, false, false, false, false, true , false, false, false, false, false, false, false, false, false, false, false, false, false, false, false, false, true , true , true , true , true , true , false, false, false, false, true , false, false, false, false, true , true , false, false, true , false, false, false, false, false, false, false, false, true , false, false, false, false, false, false, false, false, false, false, false, false, false, false, true , false, false, false, false, false, true , false, false, true , false, true , false, true , false, false, true , false, false, false, false, true , false, false, false, true , false, true , false, false, false, false, false, false, true , false, true , false, true , false, false, false, false, false, false, false, false, false, false, false, false, false, false, true , false
|false, false, false, false, false, false, true , false, false, false, false, false, false, false, false, false, false, false, false, false, false, false, false, true , true , true , true , true , true , false, false, false, false, true , false, false, false, false, true , true , false, false, true , false, false, false, false, false, false, false, false, true , false, false, false, false, false, false, false, false, false, false, false, false, false, false, true , false, false, false, false, false, true , false, false, true , false, true , false, true , false, false, true , false, false, false, false, true , false, false, false, true , false, true , false, false, false, false, false, false, true , false, true , false, true , false, false, false, false, false, false, false, false, false, false, false, false, false, false, true , false
|false, false, false, false, false, false, true , false, false, false, false, false, false, false, false, false, false, false, false, false, false, false, false, true , true , true , true , true , true , false, false, false, false, true , false, false, false, false, true , true , false, false, true , false, false, false, false, false, false, false, false, true , false, false, false, false, false, false, false, false, false, false, false, false, false, false, true , false, false, false, false, false, true , false, false, true , false, true , false, true , false, false, true , false, false, false, false, true , false, false, false, true , false, true , false, false, false, false, false, false, true , false, true , false, true , false, false, false, false, false, false, false, false, false, false, false, false, false, false, true , false
|false, false, false, false, false, false, false, false, false, false, false, false, false, false, false, false, false, false, false, false, false, false, false, false, false, false, false, false, false, false, false, false, false, true , false, false, false, false, false, false, false, false, false, false, false, false, false, false, false, false, false, false, false, false, false, false, false, false, false, false, false, false, false, false, false, false, false, false, false, false, false, false, false, false, false, false, false, false, false, false, false, false, false, false, false, false, false, false, false, false, false, true , false, true , false, false, false, false, false, false, true , false, false, false, false, false, false, false, false, false, false, false, false, false, false, false, false, false, false, false, false
|false, false, false, false, false, false, false, false, false, false, false, true , false, false, false, false, false, false, false, false, false, false, false, false, false, false, false, false, false, false, false, false, false, false, false, false, false, false, false, false, false, false, false, false, false, false, false, false, false, false, false, false, false, false, false, false, false, false, false, false, false, false, false, false, false, false, false, false, false, false, false, false, false, false, false, false, false, false, false, false, false, false, false, false, false, false, false, false, false, false, false, false, false, false, false, false, false, false, false, false, false, false, false, false, false, false, false, false, false, false, false, false, false, false, false, false, false, false, false, false, false
|false, false, true , false, false, true , true , false, true , false, false, true , true , false, false, false, true , false, false, false, false, false, true , false, false, false, false, false, true , false, false, false, false, true , true , false, true , false, false, false, false, false, false, false, false, false, false, false, false, true , false, false, true , true , false, false, true , false, false, false, false, false, false, false, true , false, false, false, true , false, false, false, false, false, false, false, true , false, false, false, false, false, false, false, false, false, false, false, false, false, true , true , false, true , false, false, false, false, true , true , false, false, false, false, false, false, false, false, true , false, false, false, false, false, false, false, false, true , false, false, false
|false, false, true , false, false, true , true , false, true , false, false, true , true , false, false, false, true , false, false, false, false, false, true , false, false, false, false, false, true , false, false, false, false, true , true , false, true , false, false, false, false, false, false, false, false, false, false, false, false, true , false, false, true , true , false, false, true , false, false, false, false, false, false, false, true , false, false, false, true , false, false, false, false, false, false, false, true , false, false, false, false, false, false, false, false, false, false, false, false, false, true , true , false, true , false, false, false, false, true , true , false, false, false, false, false, false, false, false, true , false, false, false, false, false, false, false, false, true , false, false, false
|false, true , true , false, false, true , true , false, true , false, false, true , true , false, false, true , true , false, true , true , true , false, true , false, false, false, false, false, true , true , true , false, false, true , true , false, true , false, false, false, false, true , false, false, false, false, false, false, false, true , false, false, true , true , false, false, true , false, true , false, true , false, false, false, true , false, true , false, true , false, false, false, false, false, false, false, true , false, false, false, false, false, false, false, false, false, false, false, false, false, true , true , false, true , false, false, false, true , true , true , false, true , false, false, false, false, false, false, true , false, false, false, false, false, false, false, false, true , false, false, false
|false, true , true , false, false, false, true , false, true , false, false, false, true , false, false, true , true , true , true , true , true , false, false, false, false, false, false, false, false, true , true , false, false, false, true , false, false, false, false, false, false, true , false, false, false, false, false, false, false, true , false, false, true , true , false, false, false, false, true , false, true , false, false, false, true , false, true , false, true , false, false, false, false, false, true , false, false, false, false, false, false, false, false, false, false, false, false, false, false, false, true , true , false, true , false, false, false, true , false, true , false, true , false, false, false, false, false, false, true , false, false, false, false, false, false, false, false, false, false, false, false
|false, true , true , false, false, false, true , false, true , false, false, false, true , false, false, true , true , true , true , true , true , false, false, false, false, false, false, false, false, true , true , false, false, false, true , false, false, false, false, false, false, true , false, false, false, false, false, false, false, true , false, false, true , true , false, false, false, false, true , false, true , false, false, false, true , false, true , false, true , false, false, false, false, false, true , false, false, false, false, false, false, false, false, false, false, false, false, false, false, false, true , true , false, true , false, false, false, true , false, true , false, true , false, false, false, false, false, false, true , false, false, false, false, false, false, false, false, false, false, false, false
|false, true , true , false, false, false, true , false, true , false, false, false, true , false, false, true , true , true , false, false, false, false, false, false, false, false, false, false, false, false, false, false, false, false, true , false, false, false, false, false, false, true , false, false, false, false, false, false, false, true , false, false, true , false, false, false, false, false, true , false, false, false, false, false, true , false, false, false, true , false, false, false, false, false, true , false, false, false, false, false, false, false, false, false, false, false, false, false, false, false, true , true , false, false, false, false, false, true , false, true , false, false, false, false, false, false, false, false, false, false, false, false, false, false, false, false, false, false, false, false, false
|false, false, false, false, false, false, true , false, false, false, false, false, false, false, false, true , false, false, false, false, false, false, false, false, false, false, false, false, false, false, false, false, false, false, false, false, false, false, false, false, false, false, false, false, false, false, false, false, false, false, true , false, false, false, false, false, false, false, false, false, false, false, false, false, false, false, false, false, false, false, false, false, false, false, false, false, false, false, false, false, false, false, false, false, false, false, false, false, false, false, true , true , false, false, false, false, false, true , false, false, false, false, false, false, false, false, false, true , true , false, false, false, false, false, false, false, false, false, false, false, false
|false, false, false, false, true , false, true , false, false, false, false, false, false, false, true , true , false, true , true , false, false, false, false, false, false, false, false, false, false, true , true , false, false, false, true , false, false, false, false, false, false, false, false, true , true , false, false, false, false, false, true , false, true , false, false, false, false, false, true , false, false, false, false, false, true , false, true , false, false, false, false, false, false, false, false, false, false, false, false, false, false, false, false, false, false, false, false, false, false, false, true , true , false, true , false, false, false, true , false, false, false, false, false, false, false, false, false, true , true , false, false, false, false, false, false, false, false, false, false, false, false
|false, false, false, true , true , false, true , false, false, false, false, false, false, false, true , true , false, true , true , false, false, false, true , false, false, true , false, false, true , true , true , false, false, false, true , false, false, false, false, false, false, true , false, true , true , false, false, false, false, false, true , true , true , false, false, false, false, false, true , false, false, false, false, false, true , false, true , false, false, false, false, false, true , false, true , false, false, true , false, true , false, false, false, false, false, false, false, false, false, true , true , true , false, true , false, true , false, true , false, false, false, false, false, false, false, false, false, true , true , false, false, false, false, false, false, false, false, false, false, false, false
|false, false, false, true , true , false, true , false, false, false, false, false, false, false, true , true , false, true , true , false, false, false, true , false, false, true , false, false, true , true , true , false, false, false, true , false, false, false, false, false, false, true , false, true , true , false, false, false, false, false, false, true , true , false, false, false, false, false, true , false, false, false, false, false, true , false, true , false, false, false, false, false, true , false, true , false, false, true , false, true , false, false, false, false, false, false, false, false, false, true , true , false, false, true , false, true , false, true , false, false, false, false, false, false, false, false, false, true , true , false, false, false, false, false, false, false, false, false, false, false, false
|false, false, false, true , true , false, false, false, false, false, false, false, false, false, false, false, false, false, true , false, false, false, true , false, false, true , false, false, true , false, true , false, false, false, false, false, false, false, false, false, false, true , false, false, false, false, false, false, false, false, false, true , false, false, false, false, false, false, false, false, false, false, false, false, false, false, false, false, false, false, false, false, true , false, true , false, false, true , false, true , false, false, false, false, false, false, false, false, false, true , true , false, false, false, false, true , false, false, false, false, false, false, false, false, false, false, false, false, false, false, false, false, false, false, false, false, false, false, false, false, false
|false, false, false, false, false, true , true , false, false, false, true , false, false, false, false, false, false, true , false, true , false, false, false, false, true , true , false, false, true , false, false, false, false, false, false, false, true , true , true , false, false, false, true , false, false, true , false, false, false, false, false, false, false, false, false, false, false, false, false, false, false, false, false, false, false, false, false, false, false, false, false, false, true , false, false, false, false, true , false, true , true , true , true , false, false, true , false, false, true , true , false, true , false, false, false, false, false, false, false, false, false, false, false, false, false, false, false, false, false, false, false, false, false, true , false, false, false, false, false, false, false
|false, false, false, false, false, true , true , false, false, false, true , false, false, false, false, false, false, true , false, true , false, false, false, false, true , true , false, false, true , false, false, false, false, false, false, false, true , true , true , false, false, false, true , false, false, true , false, false, false, false, false, false, false, false, false, false, false, false, false, false, false, false, false, false, false, false, false, false, false, false, false, false, true , false, false, false, false, true , false, true , true , true , true , false, false, true , false, false, true , true , false, true , false, false, false, false, false, false, false, false, false, false, false, false, false, false, false, false, false, false, false, false, false, true , false, false, false, false, false, false, false
|false, false, false, false, false, true , true , false, false, false, true , false, false, false, false, false, false, true , false, true , false, false, false, false, true , true , false, false, true , false, false, false, false, false, false, false, true , true , true , false, false, false, true , false, false, true , false, false, false, false, false, false, false, false, false, false, false, false, false, false, false, false, false, false, false, false, false, false, false, false, false, false, true , false, false, false, false, true , false, true , true , true , true , false, false, true , false, false, true , true , false, true , false, false, false, false, false, false, false, false, false, false, false, false, false, false, false, false, false, false, false, false, false, true , false, false, false, false, false, false, false
|false, false, false, false, false, false, false, false, false, false, true , false, false, false, false, false, false, false, false, false, false, false, false, false, false, false, false, false, false, false, false, false, false, false, false, false, false, false, false, false, false, false, false, false, false, false, false, false, false, false, false, false, false, false, false, false, false, false, false, false, false, false, false, false, false, false, false, false, false, false, false, false, false, false, false, false, false, false, false, false, false, true , false, false, false, false, false, false, true , true , false, true , false, false, false, false, false, false, false, false, false, false, false, false, false, false, false, false, false, false, false, false, false, false, false, false, false, false, false, false, false
|false, false, false, false, false, false, false, false, false, false, false, false, false, false, false, false, false, false, false, false, false, false, false, false, false, false, false, false, false, false, false, false, false, false, false, false, false, false, false, false, false, false, false, false, false, false, false, false, false, false, false, false, false, false, false, false, false, false, false, false, false, false, false, false, false, false, false, false, false, false, false, false, false, false, false, false, false, false, false, false, false, false, false, false, false, false, false, false, false, false, false, false, false, false, false, false, false, false, false, false, false, false, false, false, false, false, false, false, false, false, false, false, false, false, false, false, false, false, false, false, false
|false, false, true , false, false, false, false, true , false, false, false, false, true , false, false, true , true , false, false, false, false, false, false, false, false, false, false, false, false, false, false, false, true , false, false, false, false, false, false, false, true , false, false, false, false, false, true , false, false, false, true , false, false, true , false, true , false, true , false, false, false, false, false, true , true , false, false, false, true , true , false, false, false, false, false, false, true , false, false, false, false, false, true , false, false, false, true , false, false, false, false, true , true , false, false, false, false, true , false, true , false, false, false, false, false, false, false, false, false, false, false, false, false, false, false, false, true , false, false, false, false
|false, false, true , false, false, false, false, true , false, false, false, false, true , false, false, true , true , false, false, false, false, false, false, false, false, false, false, false, false, false, false, false, true , false, false, false, false, false, false, false, true , false, false, false, false, false, true , false, false, false, true , false, false, true , false, true , false, true , false, false, false, false, false, true , true , false, false, false, true , true , false, false, false, false, false, false, true , false, false, false, false, false, true , false, false, false, true , false, false, false, false, true , true , false, false, false, false, true , false, true , false, false, false, false, false, false, false, false, false, false, false, false, false, false, false, false, true , false, false, false, false
|false, true , true , false, false, false, false, true , false, false, false, false, true , false, false, true , true , false, false, false, false, true , false, false, false, false, false, false, false, false, true , false, true , false, false, false, false, false, false, false, true , true , false, false, false, false, true , false, false, false, true , false, false, true , false, true , false, true , true , false, false, false, false, true , true , false, false, false, true , true , false, false, true , false, false, false, true , false, false, false, false, false, true , false, false, false, true , false, false, false, false, true , true , true , false, false, false, true , false, true , false, false, false, false, false, false, false, false, false, false, false, false, false, false, false, false, true , false, false, false, false
|true , true , true , false, false, false, false, true , false, false, false, false, false, false, false, true , true , false, false, false, false, true , false, false, false, false, false, false, false, false, true , false, true , false, false, false, false, false, false, false, false, true , false, false, false, false, false, false, false, false, true , false, false, true , false, true , false, true , true , false, false, false, true , true , true , false, false, false, true , true , false, false, true , false, false, false, false, false, false, false, false, false, false, false, false, false, true , false, false, false, false, true , true , true , false, false, false, true , false, true , false, false, false, false, false, false, false, false, false, false, false, false, false, false, false, false, true , false, false, false, false
|true , true , true , false, false, false, false, true , false, false, false, false, false, false, false, true , true , false, false, false, false, true , false, false, false, false, false, false, false, false, true , false, true , false, false, false, false, false, false, false, false, true , false, false, false, false, false, false, false, false, true , false, false, true , false, true , false, true , true , false, false, false, true , true , true , false, false, false, true , true , false, false, true , false, false, false, false, false, false, false, false, false, false, false, false, false, true , false, false, false, false, true , true , true , false, false, false, true , false, true , false, false, false, false, false, false, false, false, false, false, false, false, false, false, false, false, true , false, false, false, false
|true , true , true , false, false, false, false, false, false, false, false, false, false, false, false, true , true , false, false, false, false, false, false, false, false, false, false, false, false, false, false, false, false, false, false, false, false, false, false, false, false, false, false, false, false, false, false, false, false, false, true , false, false, false, false, false, false, false, true , false, false, false, true , true , true , false, false, false, false, true , false, false, false, false, false, false, false, false, false, false, false, false, false, false, false, false, true , false, false, false, false, true , true , false, false, false, false, false, false, true , false, false, false, false, false, false, false, false, false, false, false, false, false, false, false, false, true , false, false, false, false
|true , false, true , false, false, false, false, true , false, false, false, false, false, false, false, false, false, false, false, false, false, false, false, false, false, false, false, false, false, false, false, false, false, false, false, false, false, false, false, false, false, false, false, false, false, false, false, false, false, false, false, false, false, false, false, false, false, false, false, false, false, false, false, false, false, false, false, false, false, false, false, false, false, false, false, false, false, false, false, false, false, false, false, false, false, false, false, false, false, false, false, true , false, false, false, false, false, false, false, false, false, false, false, false, false, false, false, false, false, false, false, false, false, false, false, false, false, false, false, false, false
|true , false, true , false, true , false, false, true , true , false, false, false, false, false, true , false, false, false, false, false, false, false, true , false, false, true , false, false, false, false, true , false, false, false, false, false, false, false, false, false, false, false, false, false, false, false, false, false, false, false, false, false, false, false, false, true , false, false, true , false, false, false, true , false, true , false, false, false, true , false, false, false, false, false, false, false, false, false, false, false, false, false, false, false, false, false, false, false, false, false, false, true , false, true , false, false, false, false, false, false, false, false, false, false, false, false, false, false, false, false, false, false, false, false, false, false, false, false, false, false, true 
|true , false, true , true , true , false, false, true , true , false, false, false, false, false, true , false, true , false, true , false, false, false, true , false, false, true , false, true , false, false, true , false, false, false, false, false, false, false, false, false, false, true , false, false, true , false, false, true , false, false, false, true , false, false, false, true , false, true , true , false, false, false, true , false, true , false, false, false, true , false, false, false, false, false, false, false, false, false, false, true , false, false, false, false, false, false, false, false, false, false, false, true , false, true , false, true , false, false, false, false, false, false, false, false, false, false, false, false, false, false, false, false, true , false, false, false, false, false, true , false, true 
|true , false, true , true , true , false, false, false, true , false, false, false, false, false, true , false, true , false, true , false, false, false, true , false, false, true , false, true , false, false, true , false, false, false, false, false, false, false, false, false, false, true , false, false, true , false, false, true , false, false, false, true , false, false, false, true , false, true , true , false, false, false, true , false, true , false, false, false, true , false, false, false, false, false, false, false, false, false, false, true , false, false, false, false, false, false, false, false, false, false, false, true , false, true , false, true , false, false, false, false, false, false, false, false, false, false, false, false, false, false, false, false, true , false, false, false, false, false, true , false, true 
|false, false, true , true , false, false, false, false, true , false, false, false, false, false, false, false, true , false, true , false, false, false, false, false, false, false, false, true , false, false, false, false, false, false, false, false, false, false, false, false, false, true , false, false, true , false, false, true , false, false, false, true , false, false, false, true , false, true , false, false, false, false, false, false, false, false, false, false, false, false, false, false, false, false, false, false, false, false, false, true , false, false, false, false, false, false, false, false, false, false, false, true , false, true , false, true , false, false, false, false, false, false, false, false, false, false, false, false, false, false, false, false, true , false, false, false, false, false, true , false, false
|false, false, true , false, true , true , false, false, false, false, false, false, false, false, false, false, false, false, false, false, false, true , false, false, true , true , true , false, true , false, false, false, false, true , true , true , false, false, false, false, false, false, false, false, false, true , false, true , false, false, false, true , false, false, false, false, false, false, false, false, false, false, false, false, false, false, false, false, false, false, false, false, false, false, false, false, false, false, false, true , false, true , false, false, false, true , true , false, false, false, false, true , false, true , false, false, true , false, false, false, false, false, false, false, false, false, false, false, false, false, false, false, false, false, false, false, false, false, false, false, false
|false, false, true , false, true , true , false, false, false, false, false, false, false, false, false, false, false, false, false, false, false, true , false, false, true , true , true , false, true , false, false, false, false, true , true , true , false, false, false, false, false, false, false, false, false, true , false, true , false, false, false, true , false, false, false, false, false, false, false, false, false, false, false, false, false, false, false, false, false, false, false, false, false, false, false, false, false, false, false, true , false, true , false, false, false, true , true , false, false, false, false, true , false, true , false, false, true , false, false, false, false, false, false, false, false, false, false, false, false, false, false, false, false, false, false, false, false, false, false, false, false
|false, false, true , false, true , true , false, false, false, false, false, false, false, false, false, false, false, false, false, false, false, true , false, false, true , true , true , false, true , false, false, false, false, true , true , true , false, false, false, false, false, false, false, false, false, true , false, true , false, false, false, true , false, false, false, false, false, false, false, false, false, false, false, false, false, false, false, false, false, false, false, false, false, false, false, false, false, false, false, true , false, true , false, false, false, true , true , false, false, false, false, true , false, true , false, false, true , false, false, false, false, false, false, false, false, false, false, false, false, false, false, false, false, false, false, false, false, false, false, false, false
|false, false, true , false, false, false, false, false, false, false, false, false, false, false, false, false, false, false, false, false, false, false, false, false, false, false, false, false, false, false, false, false, false, true , false, false, false, false, false, false, false, false, false, false, false, false, false, false, false, false, false, false, false, false, false, false, false, false, false, false, false, false, false, false, false, false, false, false, false, false, false, false, false, false, false, false, false, false, false, false, false, false, false, false, false, false, false, false, false, false, false, true , false, false, false, false, true , false, false, false, false, false, false, false, false, false, false, false, false, false, false, false, false, false, false, false, false, false, false, false, false
|false, false, false, false, false, false, false, false, false, false, false, false, false, false, false, false, false, false, false, false, false, false, false, false, false, false, false, false, false, false, false, false, false, false, false, false, false, false, false, false, false, false, false, false, false, false, false, false, false, false, false, false, false, false, false, false, false, false, false, false, false, false, false, false, false, false, false, false, false, false, false, false, false, false, false, false, false, false, false, false, false, false, false, false, false, false, false, false, false, false, false, false, false, false, false, false, false, false, false, false, false, false, false, false, false, false, false, false, false, false, false, false, false, false, false, false, false, false, false, false, false
|false, false, true , false, true , true , false, false, false, false, false, false, false, true , false, false, true , false, false, false, false, false, false, false, false, false, true , true , false, false, true , false, true , false, false, false, true , false, false, false, false, false, false, false, false, true , false, false, false, true , false, false, false, false, true , false, true , false, false, true , false, false, false, false, false, false, false, false, false, false, false, false, false, false, false, false, true , false, false, false, false, false, false, false, false, false, false, false, false, false, false, true , false, false, false, true , false, false, true , false, false, false, false, false, false, true , true , false, false, true , false, false, false, false, false, false, false, false, false, false, false
|false, false, true , false, true , true , false, false, false, false, false, false, false, true , false, false, true , false, false, false, false, false, false, false, false, false, true , true , false, false, true , false, true , false, false, false, true , false, false, false, false, false, false, false, false, true , false, false, false, true , false, false, false, false, true , false, true , false, false, true , false, false, false, false, false, false, false, false, false, false, false, false, false, false, false, false, true , false, false, false, false, false, false, false, false, false, false, false, false, false, false, true , false, false, false, true , false, false, true , false, false, false, false, false, false, true , true , false, false, true , false, false, false, false, false, false, false, false, false, false, false
|false, false, true , false, true , true , false, false, false, false, false, false, false, true , false, false, true , true , false, false, false, false, false, false, false, false, true , true , false, false, true , false, true , false, false, false, true , false, false, false, false, false, false, false, false, true , false, false, false, true , false, false, false, false, true , false, true , false, false, true , false, false, false, false, false, false, false, false, false, false, false, false, false, false, false, false, true , false, false, false, true , false, false, false, false, false, false, false, false, false, false, true , false, true , false, true , false, false, true , false, false, false, false, false, false, true , true , false, false, true , false, false, false, false, false, true , false, false, true , false, false
|false, false, true , false, false, false, false, false, false, false, true , false, false, false, false, false, false, true , false, false, false, false, false, false, false, false, false, false, false, false, false, false, true , false, true , false, false, false, false, false, false, false, false, false, false, false, false, false, false, true , false, false, true , false, true , false, false, false, false, true , false, false, false, false, false, false, false, false, false, false, false, false, false, false, false, false, false, false, false, false, true , false, false, false, false, false, false, false, false, false, false, true , false, true , false, true , false, false, false, true , false, false, false, false, false, true , true , false, false, true , false, false, false, false, false, true , false, false, true , false, false
|false, false, true , false, false, false, false, false, false, false, true , false, false, false, false, false, false, true , false, false, false, false, false, false, false, false, false, false, false, false, false, false, true , false, true , false, false, false, false, false, false, false, false, false, false, false, false, false, false, true , false, false, true , false, true , false, false, false, false, true , false, false, false, false, false, false, false, false, false, false, false, false, false, false, false, false, false, false, false, false, true , false, false, false, false, false, false, false, false, false, false, true , false, true , false, true , false, false, false, true , false, false, false, false, false, true , true , false, false, true , false, false, false, false, false, true , false, false, true , false, false
|false, false, true , false, false, false, false, false, false, false, true , false, false, false, false, false, false, false, false, false, false, false, false, false, false, false, false, false, false, false, false, false, false, false, true , false, false, false, false, false, false, false, false, false, false, false, false, false, false, true , false, false, true , false, true , false, false, false, false, true , false, false, false, false, false, false, false, false, false, false, false, false, false, false, false, false, false, false, false, false, false, false, false, false, false, false, false, false, false, false, false, true , false, false, false, false, false, false, false, true , false, false, false, false, false, true , true , false, false, true , false, false, false, false, false, false, false, false, false, false, false
|false, false, false, false, false, false, false, false, true , false, false, false, false, false, false, false, false, false, false, false, false, false, false, false, false, false, false, false, false, false, false, false, false, false, false, false, false, false, false, false, false, false, false, false, false, false, false, false, false, false, false, false, false, false, false, false, false, false, false, true , false, false, false, false, false, false, false, false, false, false, false, false, false, false, false, false, false, false, false, false, false, false, false, false, false, false, false, false, false, false, false, false, false, false, false, false, false, false, false, false, false, false, false, false, false, false, false, false, false, true , false, false, false, false, false, false, false, false, false, false, false
|false, false, true , false, false, false, false, false, true , false, false, false, false, false, false, false, true , false, false, false, false, false, false, false, false, false, false, false, false, false, false, false, false, false, true , false, false, false, false, false, false, false, false, false, false, false, false, false, false, true , false, false, false, false, true , false, false, false, false, true , false, false, false, false, false, false, false, true , false, false, false, true , false, false, false, false, false, false, false, false, true , false, false, false, false, false, false, false, false, false, false, false, true , false, true , false, false, false, false, false, false, false, false, false, false, false, false, false, false, true , false, false, false, false, false, false, false, false, true , false, false
|false, false, true , false, false, true , false, false, true , false, true , false, false, false, false, false, true , false, false, false, false, false, false, false, false, true , false, false, false, false, false, false, false, false, true , false, false, false, false, false, false, false, false, false, false, false, false, false, false, true , false, false, false, false, true , false, false, false, false, true , false, false, false, false, false, false, false, true , false, false, false, true , false, false, false, false, false, false, false, false, true , true , false, false, true , false, false, false, false, false, false, false, true , false, true , false, false, false, false, false, false, false, false, false, false, false, false, false, false, true , false, false, false, false, false, false, false, false, true , false, false
|false, false, true , false, false, true , false, false, true , false, true , false, false, false, false, false, true , false, false, false, false, false, false, false, false, true , false, false, false, false, false, false, false, false, true , false, false, false, false, false, false, false, false, false, false, false, false, false, false, true , false, false, false, false, true , false, false, false, false, true , false, false, false, false, false, false, false, true , false, false, false, true , false, false, false, false, false, false, false, false, true , true , false, false, true , false, false, false, false, false, false, false, true , false, true , false, false, false, false, false, false, false, false, false, false, false, false, false, false, true , false, false, false, false, false, false, false, false, true , false, false
|false, false, false, false, false, true , false, false, true , false, true , false, false, false, false, false, false, false, false, false, false, false, false, false, false, true , false, false, false, false, false, false, false, false, true , false, false, false, false, false, false, false, false, false, false, false, false, false, false, false, false, false, false, false, true , false, false, false, false, false, false, false, false, false, false, false, false, false, false, false, false, true , false, false, false, false, false, false, false, false, false, true , false, false, true , false, false, false, false, false, false, false, false, false, true , false, false, false, false, false, false, false, false, false, false, false, false, false, false, false, false, false, false, false, false, false, false, false, false, false, false
|false, false, true , false, true , false, false, false, true , false, false, false, false, false, false, false, false, false, false, false, false, false, false, false, true , false, false, true , false, false, false, false, false, true , false, false, true , false, false, false, false, false, false, false, false, true , false, false, false, false, false, false, false, false, false, false, false, false, false, false, false, false, false, false, false, false, false, false, false, false, false, true , false, false, false, false, false, false, false, true , true , true , true , false, true , true , false, false, true , true , false, true , true , false, true , false, false, false, false, false, false, false, false, false, false, false, false, false, false, false, false, false, false, false, false, false, false, false, false, false, false
|false, false, true , false, true , false, false, false, true , false, false, false, false, false, false, false, false, false, false, false, false, false, false, false, true , false, false, true , false, false, false, false, false, true , false, false, true , false, false, false, false, false, false, false, false, true , false, false, false, false, false, false, false, false, false, false, false, false, false, false, false, false, false, false, false, false, false, false, false, false, false, true , false, false, false, false, false, false, false, true , true , true , true , false, true , true , false, false, true , true , false, true , true , false, true , false, false, false, false, false, false, false, false, false, false, false, false, false, false, false, false, false, false, false, false, false, false, false, false, false, false
|false, false, true , false, true , false, false, false, true , false, false, false, false, false, false, false, false, false, false, false, false, false, false, false, true , false, false, true , false, false, false, false, false, true , false, false, true , false, false, false, false, false, false, false, false, true , false, false, false, false, false, false, false, false, false, false, false, false, false, false, false, false, false, false, false, false, false, false, false, false, false, true , false, false, false, false, false, false, false, true , true , true , true , false, true , true , false, false, true , true , false, true , true , false, true , false, false, false, false, false, false, false, false, false, false, false, false, false, false, false, false, false, false, false, false, false, false, false, false, false, false
|false, false, true , false, false, false, false, false, false, false, false, false, false, false, false, false, false, false, false, false, false, false, false, false, false, false, false, false, false, false, false, false, false, false, false, false, false, false, false, false, false, false, false, false, false, false, false, false, false, false, false, false, false, false, false, false, false, false, false, false, false, false, false, false, false, false, false, false, false, false, false, true , false, false, false, false, false, false, false, false, false, false, false, false, false, false, false, false, true , true , false, true , false, false, false, false, false, false, false, false, false, false, false, false, false, false, false, false, false, false, false, false, false, false, false, false, false, false, false, false, false
|false, false, false, false, false, false, false, false, false, false, false, false, false, false, false, false, false, false, false, false, false, false, false, false, false, false, false, false, false, false, false, false, false, false, false, false, false, false, false, false, false, false, false, false, false, false, false, false, false, false, false, false, false, false, false, false, false, false, false, false, false, false, false, false, false, false, false, false, false, false, false, false, false, false, false, false, false, false, false, false, false, false, false, false, false, false, false, false, false, false, false, false, false, false, false, false, false, false, false, false, false, false, false, false, false, false, false, false, false, false, false, false, false, false, false, false, false, false, false, false, false
|false, false, false, true , false, false, false, false, false, false, false, false, false, false, false, false, false, false, false, false, false, false, false, true , false, false, false, false, false, false, false, false, false, false, false, false, false, false, false, false, false, false, false, false, false, false, false, false, true , false, false, true , false, false, false, false, true , false, false, false, false, false, false, false, false, false, false, false, false, false, true , false, false, false, false, false, false, false, false, false, false, false, false, false, false, false, false, false, false, false, false, true , false, false, false, false, false, false, false, false, true , false, false, false, false, false, false, false, false, false, false, false, false, true , false, false, false, false, false, false, false
|false, false, false, true , false, false, false, false, false, false, false, false, false, false, false, false, false, false, false, false, false, false, false, true , false, false, false, false, false, false, false, false, false, false, false, false, false, false, false, false, false, false, false, false, false, false, false, false, true , false, false, true , false, false, false, false, true , false, false, false, false, false, false, false, false, false, false, false, false, false, true , false, false, false, false, false, false, false, false, false, false, false, false, false, false, false, false, false, false, false, false, true , false, false, false, false, false, false, false, false, true , false, false, false, false, false, false, false, false, false, false, false, false, true , false, false, false, false, false, false, false
|false, false, false, true , false, false, false, false, false, false, false, false, false, false, false, false, false, false, false, false, false, false, false, true , false, false, false, false, false, true , false, false, false, false, false, false, false, false, false, false, false, false, false, false, false, false, false, false, true , false, false, true , false, false, false, false, true , false, false, false, false, false, false, false, false, false, false, false, false, false, true , false, false, false, false, false, false, false, false, false, false, false, false, false, true , false, false, false, false, false, false, true , false, false, false, false, false, false, false, false, true , false, false, false, false, false, false, false, false, false, false, false, false, true , false, false, false, false, false, false, false
|false, false, false, false, false, false, false, false, false, false, false, false, false, false, false, false, false, false, false, false, false, false, false, true , false, false, false, false, false, true , false, false, false, false, false, false, false, false, false, false, false, false, false, false, false, false, false, false, true , false, false, true , false, false, false, false, true , false, false, false, false, false, false, false, false, false, false, false, false, false, true , false, false, false, false, false, false, false, false, false, false, false, false, false, true , false, false, false, false, false, false, true , false, false, false, false, false, false, false, false, true , false, false, false, false, false, false, false, false, false, false, false, false, true , false, false, false, false, false, false, false
|false, false, false, false, false, false, false, false, false, false, false, false, false, false, false, false, false, false, false, false, false, false, false, true , false, false, false, false, false, true , false, false, false, false, false, false, false, false, false, false, false, false, false, false, false, false, false, false, true , false, false, true , false, false, false, false, true , false, false, false, false, false, false, false, false, false, false, false, false, false, true , false, false, false, false, false, false, false, false, false, false, false, false, false, true , false, false, false, false, false, false, true , false, false, false, false, false, false, false, false, true , false, false, false, false, false, false, false, false, false, false, false, false, true , false, false, false, false, false, false, false
|false, false, false, false, false, false, false, false, false, false, false, false, false, false, false, false, false, false, false, false, false, false, false, true , false, false, false, false, false, false, false, false, false, false, false, false, false, false, false, false, false, false, false, false, false, false, false, false, true , false, false, true , false, false, false, false, true , false, false, false, false, false, false, false, false, false, false, false, false, false, true , false, false, false, false, false, false, false, false, false, false, false, false, false, true , false, false, false, false, false, false, true , false, false, false, false, false, false, false, false, true , false, false, false, false, false, false, false, false, false, false, false, false, true , false, false, false, false, false, false, false
|false, false, false, false, false, false, false, false, false, false, false, false, false, false, false, false, false, false, false, false, false, false, false, false, false, false, false, false, false, false, false, false, false, false, false, false, false, false, false, false, false, false, false, false, false, false, false, false, true , false, false, false, false, false, false, false, false, false, false, false, false, false, false, false, false, false, false, false, false, false, true , false, false, false, false, false, false, false, false, false, false, false, false, false, true , false, false, false, false, false, false, false, false, false, false, false, false, false, false, false, true , false, false, false, false, false, false, false, false, false, false, false, false, false, false, false, false, false, false, false, false
|false, false, false, false, false, false, false, false, false, false, false, false, false, false, false, false, false, false, true , false, false, false, false, true , false, false, false, true , false, true , false, false, false, false, false, false, false, false, false, false, false, false, false, false, false, false, false, false, true , false, false, true , false, false, false, false, false, false, false, false, false, false, false, false, false, false, false, false, false, false, true , false, false, false, false, false, false, false, false, false, false, false, false, false, true , false, false, false, false, false, false, false, false, true , false, false, false, false, false, false, true , true , false, false, false, false, false, false, false, false, false, false, false, false, false, false, false, false, false, false, false
|false, false, false, false, false, false, false, false, false, false, false, false, false, false, false, false, false, false, true , false, false, false, false, true , false, false, false, true , false, true , false, false, true , false, false, false, false, false, false, true , false, false, false, false, false, false, true , false, true , false, false, true , false, false, false, false, true , false, false, false, false, false, false, false, false, false, false, false, false, false, true , false, false, false, false, false, false, false, false, false, false, false, true , false, true , true , false, false, false, false, false, false, false, true , false, false, false, false, false, false, true , true , false, true , false, false, false, false, false, false, false, false, false, false, false, false, false, false, false, false, false
|false, false, false, false, false, false, false, false, false, false, false, false, false, false, false, false, false, false, true , false, false, false, false, true , false, false, false, true , false, true , false, false, true , false, false, false, false, false, false, true , false, false, false, false, false, false, true , false, false, false, false, true , false, false, false, false, true , false, false, false, false, false, false, false, false, false, false, false, false, false, false, false, false, false, false, false, false, false, false, false, false, false, true , false, true , true , false, false, false, false, false, false, false, true , false, false, false, false, false, false, false, true , false, true , false, false, false, false, false, false, false, false, false, false, false, false, false, false, false, false, false
|false, false, false, false, false, false, false, false, false, false, false, false, false, false, false, false, false, false, false, false, false, false, false, false, false, false, false, true , false, false, false, false, true , false, false, false, false, false, false, true , false, false, false, false, false, false, true , false, false, false, false, false, false, false, false, false, true , false, false, false, false, false, false, false, false, false, false, false, false, false, false, false, false, false, false, false, false, false, false, false, false, false, true , false, true , true , false, false, false, false, false, false, false, true , false, false, false, false, false, false, false, false, false, true , false, false, false, false, false, false, false, false, false, false, false, false, false, false, false, false, false
|false, false, false, false, false, false, false, false, false, false, false, false, false, false, false, false, false, false, false, false, false, false, false, false, false, false, false, true , false, false, false, false, true , false, false, false, false, false, false, true , false, false, false, false, false, false, false, false, false, false, false, false, false, false, false, false, true , false, false, false, false, false, false, false, false, false, false, false, false, false, false, false, false, false, false, false, false, false, false, false, false, false, true , false, true , true , false, false, false, false, false, true , false, true , false, false, false, false, false, false, false, false, false, true , false, false, false, false, false, false, false, false, false, false, false, false, false, false, false, false, false
|false, false, false, false, false, false, false, false, false, false, false, false, false, false, false, false, false, false, false, false, false, false, false, false, false, false, false, true , false, false, false, false, true , false, false, false, false, false, false, true , false, false, false, false, false, false, false, false, false, false, false, false, false, false, false, false, true , false, false, false, false, false, false, false, false, false, false, false, false, false, false, false, false, false, false, false, false, false, false, false, false, false, true , false, true , true , false, false, false, false, false, true , false, true , false, false, false, false, false, false, false, false, false, true , false, false, false, false, false, false, false, false, false, false, false, false, false, false, false, false, false
|false, false, false, false, false, false, false, false, false, false, false, false, false, false, false, false, false, false, false, false, false, false, false, false, false, false, false, true , false, false, false, false, true , false, false, false, false, false, false, true , false, false, false, false, false, false, false, false, false, false, false, false, false, false, false, false, true , false, false, false, false, false, false, false, false, false, false, false, false, false, false, false, false, false, false, false, false, false, false, false, false, false, true , false, true , true , false, false, false, false, false, true , false, true , false, false, false, false, false, false, false, false, false, true , false, false, false, false, false, false, false, false, false, false, false, false, false, false, false, false, false
|false, false, false, false, false, false, false, false, false, false, false, false, false, false, false, false, false, false, false, false, false, false, false, false, false, false, false, false, false, false, false, false, false, false, false, false, false, false, false, false, false, false, false, false, false, false, false, false, false, false, false, false, false, false, false, false, false, false, false, false, false, false, false, false, false, false, false, false, false, false, false, false, false, false, false, false, false, false, false, false, false, false, false, false, false, false, false, false, false, false, false, true , false, true , false, false, false, false, false, false, false, false, false, false, false, false, false, false, false, false, false, false, false, false, false, false, false, false, false, false, false
|];
