% Real instance from AcademiAPP, period 5 (Febrero 2024 - Junio 2024).
% Generated by scripts/academiapp/make_instances.py from the CSV
% snapshot. Enrollment caps: room-proxy (the API does not
% publish them); subject resource requirements are inferred from the
% room the campus used. Both are approximations, not campus data.
% Availability repair: none. The schedule the campus ran
% violates the model's hard constraints (teacher clashes 0, rooms double-booked 22, same-cohort overlaps 19, hours taught outside the
% declared availability 15), so
% this instance can be unsatisfiable for reasons present in the data.

Recursos=[Coliseo, LabAlimentos, LabElectronica, LabFisica, Ninguno, PlantaAlimentos, SalaSistemas];
sede=30;
salones=30;
Sc=[25,36,36,42,42,44,37,38,25,53,58,54,55,62,30,40,47,46,39,28,30,30,60,25,25,25,60,30,54,62];
Sr=[PlantaAlimentos, Ninguno, Ninguno, Ninguno, Ninguno, Ninguno, Ninguno, Ninguno, Ninguno, Ninguno, Ninguno, Ninguno, Ninguno, Ninguno, Ninguno, Ninguno, Ninguno, Ninguno, Ninguno, SalaSistemas, SalaSistemas, SalaSistemas, Coliseo, LabAlimentos, LabElectronica, LabFisica, Ninguno, Ninguno, SalaSistemas, SalaSistemas];
N=96;
ini=1;
fin=315;
Asig=315;
Ar=[Ninguno,SalaSistemas,SalaSistemas,Ninguno,SalaSistemas,SalaSistemas,SalaSistemas,Ninguno,Ninguno,Ninguno,SalaSistemas,SalaSistemas,Ninguno,Ninguno,SalaSistemas,Ninguno,Ninguno,Ninguno,SalaSistemas,SalaSistemas,SalaSistemas,Ninguno,SalaSistemas,SalaSistemas,Ninguno,Ninguno,Ninguno,Ninguno,Ninguno,Ninguno,Ninguno,Ninguno,Ninguno,SalaSistemas,Ninguno,Ninguno,Ninguno,Ninguno,Ninguno,Ninguno,Ninguno,SalaSistemas,SalaSistemas,SalaSistemas,Ninguno,Ninguno,Ninguno,Ninguno,Ninguno,Ninguno,Ninguno,Ninguno,Ninguno,SalaSistemas,Ninguno,Ninguno,Ninguno,Ninguno,SalaSistemas,Ninguno,Ninguno,Ninguno,Ninguno,Ninguno,Ninguno,Ninguno,Ninguno,Ninguno,Ninguno,Ninguno,Ninguno,Ninguno,Ninguno,Ninguno,Ninguno,Ninguno,Ninguno,Ninguno,Ninguno,Ninguno,Coliseo,Ninguno,LabElectronica,SalaSistemas,SalaSistemas,Ninguno,Ninguno,LabAlimentos,Ninguno,Ninguno,SalaSistemas,LabAlimentos,LabAlimentos,Ninguno,Ninguno,SalaSistemas,Ninguno,Ninguno,Ninguno,Ninguno,Ninguno,Ninguno,Ninguno,Ninguno,Ninguno,SalaSistemas,Ninguno,Ninguno,Ninguno,Ninguno,Ninguno,Ninguno,Ninguno,SalaSistemas,Ninguno,Ninguno,Ninguno,SalaSistemas,Ninguno,Ninguno,Ninguno,Ninguno,Ninguno,Ninguno,Ninguno,Ninguno,Ninguno,Ninguno,Ninguno,Ninguno,Ninguno,SalaSistemas,Ninguno,Ninguno,Ninguno,Ninguno,Ninguno,Ninguno,Ninguno,Ninguno,Ninguno,Ninguno,Ninguno,Ninguno,Ninguno,Ninguno,Ninguno,Ninguno,SalaSistemas,SalaSistemas,Ninguno,SalaSistemas,SalaSistemas,SalaSistemas,SalaSistemas,Ninguno,SalaSistemas,SalaSistemas,Ninguno,SalaSistemas,SalaSistemas,Ninguno,Ninguno,Ninguno,SalaSistemas,Ninguno,Ninguno,SalaSistemas,Ninguno,SalaSistemas,SalaSistemas,Ninguno,Ninguno,Coliseo,Coliseo,Ninguno,Ninguno,SalaSistemas,SalaSistemas,SalaSistemas,SalaSistemas,SalaSistemas,SalaSistemas,SalaSistemas,SalaSistemas,Ninguno,Ninguno,Ninguno,Ninguno,Ninguno,Ninguno,SalaSistemas,SalaSistemas,Ninguno,Ninguno,Ninguno,SalaSistemas,SalaSistemas,SalaSistemas,Ninguno,Ninguno,Ninguno,Ninguno,SalaSistemas,Ninguno,SalaSistemas,Ninguno,Ninguno,Ninguno,SalaSistemas,Ninguno,Ninguno,SalaSistemas,Ninguno,Ninguno,Ninguno,Ninguno,Ninguno,Ninguno,Ninguno,Ninguno,Ninguno,Ninguno,Ninguno,Ninguno,Ninguno,SalaSistemas,Ninguno,Ninguno,Coliseo,Ninguno,SalaSistemas,SalaSistemas,Ninguno,Ninguno,Ninguno,SalaSistemas,SalaSistemas,Coliseo,Ninguno,Ninguno,Ninguno,Ninguno,Ninguno,Ninguno,Ninguno,Ninguno,Ninguno,SalaSistemas,Ninguno,Ninguno,Ninguno,Ninguno,Ninguno,Ninguno,Ninguno,Ninguno,Ninguno,Ninguno,Ninguno,Ninguno,Ninguno,Ninguno,Ninguno,LabElectronica,SalaSistemas,Ninguno,Ninguno,SalaSistemas,SalaSistemas,Ninguno,Ninguno,LabAlimentos,Ninguno,Ninguno,Ninguno,Ninguno,LabAlimentos,LabAlimentos,Ninguno,Ninguno,Ninguno,Ninguno,Ninguno,Ninguno,Ninguno,Ninguno,Ninguno,Ninguno,Ninguno,Ninguno,Ninguno,Ninguno,SalaSistemas,Ninguno,Ninguno,Ninguno,SalaSistemas,Ninguno,Ninguno,Ninguno,Ninguno,Ninguno,Ninguno,Ninguno,Ninguno,Ninguno,Ninguno,Ninguno,Ninguno,Ninguno,Ninguno,Ninguno,Ninguno,Ninguno];
Ae=[30,28,30,62,54,30,30,30,55,55,54,28,42,42,30,55,60,53,54,30,28,30,54,62,58,36,42,36,30,53,53,55,44,62,44,42,58,55,60,62,42,62,62,62,36,62,55,55,46,36,30,38,46,62,42,62,60,36,28,38,38,40,38,53,53,58,58,30,37,36,54,44,36,36,40,40,36,40,36,42,60,60,25,54,28,42,44,25,44,36,62,25,25,42,54,62,36,47,36,47,47,54,54,37,37,30,38,42,42,25,58,55,30,54,37,58,54,62,47,44,37,55,38,42,42,53,44,42,37,54,37,62,54,58,44,36,40,37,54,30,62,62,62,40,40,40,40,60,54,54,53,30,30,30,30,53,28,30,54,54,30,30,40,36,62,42,30,28,30,30,62,36,54,60,60,60,60,54,54,30,30,30,30,30,54,60,60,60,62,53,53,54,54,58,62,53,28,30,30,60,42,58,42,62,58,62,55,58,36,54,36,53,62,36,62,42,58,46,44,38,62,44,25,53,40,38,30,44,53,60,37,54,30,55,58,58,28,30,60,54,36,25,54,40,55,55,55,55,30,47,47,47,47,47,47,36,47,47,47,46,37,38,60,44,25,62,54,60,28,62,42,42,25,62,44,55,62,25,25,42,54,36,54,30,58,54,54,62,36,36,62,38,62,62,38,44,55,30,38,38,40,54,53,62,39,36,55,62,60,46,58,36,44,42,25];
