% Real instance from AcademiAPP, period 6 (Agosto 2024 - Diciembre 2024).
% Generated by scripts/academiapp/make_instances.py from the CSV
% snapshot. Enrollment caps: room-proxy (the API does not
% publish them); subject resource requirements are inferred from the
% room the campus used. Both are approximations, not campus data.
% Availability repair: none. The schedule the campus ran
% violates the model's hard constraints (teacher clashes 4, rooms double-booked 28, same-cohort overlaps 32, hours taught outside the
% declared availability 7), so
% this instance can be unsatisfiable for reasons present in the data.

diurno = {1, 2, 3, 4, 5, 6, 7, 8, 9, 10, 11, 12, 17, 18, 19, 20, 21, 22, 23, 24, 25, 26, 27, 28, 33, 34, 35, 36, 37, 38, 39, 40, 41, 42, 43, 44, 49, 50, 51, 52, 53, 54, 55, 56, 57, 58, 59, 60, 65, 66, 67, 68, 69, 70, 71, 72, 73, 74, 75, 76, 81, 82, 83, 84, 85, 86, 87, 88, 89, 90, 91, 92};
nocturno = {13, 14, 15, 16, 29, 30, 31, 32, 45, 46, 47, 48, 61, 62, 63, 64, 77, 78, 79, 80, 93, 94, 95, 96};
H = 96;
asignaturas = 339;
docentes = 135;

A=[|2, 6, 1000, 53, 0, 4
|2, 6, 1001, 50, 0, 3
|2, 6, 1002, 50, 0, 3
|2, 6, 1003, 50, 0, 3
|2, 6, 1004, 50, 0, 3
|2, 6, 1005, 50, 0, 3
|1, 3, 1007, 50, 0, 3
|1, 6, 1008, 50, 0, 4
|1, 6, 1009, 50, 0, 3
|1, 6, 1010, 50, 0, 4
|1, 6, 1011, 50, 0, 3
|1, 6, 1011, 51, 0, 3
|1, 6, 1012, 50, 0, 3
|1, 8, 1013, 50, 0, 3
|1, 8, 1014, 50, 0, 3
|1, 10, 1015, 50, 0, 3
|1, 3, 1016, 51, 0, 3
|3, 5, 1017, 50, 0, 3
|3, 6, 1019, 50, 0, 4
|3, 7, 1020, 50, 0, 3
|3, 7, 1021, 50, 0, 3
|3, 7, 1022, 50, 0, 4
|3, 7, 1023, 50, 0, 3
|3, 7, 1023, 51, 0, 3
|3, 7, 1024, 50, 0, 3
|3, 9, 1025, 50, 0, 3
|3, 7, 1026, 50, 0, 3
|12, 1, 1027, 50, 0, 3
|3, 7, 1028, 50, 0, 3
|8, 6, 1029, 50, 0, 3
|1, 5, 119, 50, 0, 3
|1, 7, 127, 50, 0, 3
|1, 7, 128, 50, 0, 3
|1, 7, 129, 50, 0, 4
|1, 7, 130, 50, 0, 4
|1, 7, 131, 50, 0, 3
|1, 8, 133, 50, 0, 3
|1, 8, 134, 50, 0, 1
|1, 8, 134, 51, 0, 1
|1, 8, 136, 50, 0, 3
|1, 8, 137, 50, 0, 3
|1, 9, 138, 50, 0, 2
|1, 9, 139, 50, 0, 3
|1, 1, 2, 50, 0, 5
|5, 8, 271, 50, 0, 3
|5, 8, 273, 50, 0, 2
|5, 8, 276, 50, 0, 3
|1, 3, 483, 52, 0, 5
|1, 3, 483, 53, 0, 5
|5, 2, 496, 50, 0, 3
|5, 2, 496, 51, 0, 3
|5, 2, 497, 50, 0, 3
|5, 2, 498, 50, 0, 3
|5, 4, 499, 50, 0, 4
|5, 4, 500, 50, 0, 4
|5, 4, 500, 51, 0, 4
|5, 2, 501, 50, 0, 3
|5, 6, 502, 50, 0, 4
|5, 6, 503, 50, 0, 4
|5, 2, 504, 50, 0, 3
|5, 2, 504, 51, 0, 3
|5, 6, 505, 50, 0, 4
|5, 6, 506, 50, 0, 4
|5, 4, 511, 50, 0, 3
|5, 6, 512, 50, 0, 3
|5, 4, 513, 50, 0, 3
|5, 2, 515, 52, 0, 3
|11, 1, 519, 52, 0, 5
|11, 1, 520, 54, 0, 5
|11, 1, 521, 50, 0, 3
|11, 1, 522, 51, 0, 3
|11, 1, 523, 50, 0, 3
|11, 1, 524, 50, 0, 3
|4, 1, 525, 51, 0, 4
|4, 3, 526, 50, 0, 4
|4, 1, 527, 50, 0, 3
|4, 1, 528, 50, 0, 6
|4, 1, 528, 51, 0, 6
|4, 1, 528, 52, 0, 6
|4, 3, 529, 50, 0, 6
|4, 3, 529, 51, 0, 6
|4, 1, 530, 50, 0, 3
|4, 1, 531, 50, 0, 3
|4, 1, 532, 50, 0, 3
|4, 3, 533, 50, 0, 4
|4, 3, 533, 51, 0, 4
|4, 3, 534, 50, 0, 3
|4, 3, 535, 50, 0, 3
|4, 3, 536, 50, 0, 3
|4, 3, 537, 50, 0, 3
|1, 4, 539, 50, 0, 5
|1, 4, 541, 50, 0, 4
|8, 3, 551, 53, 1, 4
|8, 4, 552, 50, 0, 4
|8, 4, 553, 50, 0, 3
|8, 4, 554, 50, 0, 3
|8, 4, 554, 51, 0, 3
|8, 4, 555, 51, 0, 3
|8, 4, 556, 51, 0, 4
|1, 4, 557, 51, 0, 4
|1, 4, 558, 50, 0, 3
|1, 4, 559, 52, 0, 4
|1, 9, 561, 50, 0, 3
|1, 9, 562, 50, 0, 3
|9, 7, 600, 50, 1, 4
|9, 7, 601, 50, 1, 4
|9, 7, 602, 50, 1, 4
|9, 7, 603, 50, 1, 4
|3, 3, 607, 50, 0, 5
|3, 1, 609, 50, 0, 4
|3, 1, 609, 51, 0, 4
|3, 3, 614, 54, 0, 5
|3, 1, 615, 54, 0, 5
|3, 1, 616, 50, 0, 5
|3, 1, 616, 51, 0, 5
|3, 3, 617, 52, 0, 4
|3, 3, 619, 50, 0, 3
|3, 1, 620, 50, 0, 2
|3, 1, 621, 51, 0, 3
|3, 1, 622, 51, 0, 2
|3, 5, 624, 50, 0, 5
|3, 3, 625, 50, 0, 3
|3, 5, 626, 50, 0, 3
|3, 5, 627, 50, 0, 4
|3, 5, 628, 50, 0, 4
|3, 5, 629, 50, 0, 4
|1, 1, 63, 52, 0, 3
|3, 3, 630, 50, 0, 3
|1, 1, 64, 52, 0, 2
|3, 9, 652, 50, 0, 3
|3, 9, 653, 50, 0, 4
|3, 9, 654, 50, 0, 6
|3, 9, 654, 51, 0, 6
|3, 9, 659, 51, 1, 4
|1, 1, 66, 52, 0, 3
|1, 1, 66, 53, 0, 3
|3, 9, 661, 51, 0, 3
|3, 3, 663, 50, 0, 4
|3, 3, 663, 51, 0, 4
|1, 1, 67, 52, 0, 3
|1, 1, 67, 53, 0, 3
|2, 8, 671, 50, 0, 3
|2, 8, 672, 51, 0, 3
|2, 8, 673, 50, 0, 3
|2, 8, 674, 50, 0, 3
|2, 8, 675, 50, 0, 3
|2, 8, 676, 50, 0, 3
|2, 8, 677, 50, 0, 3
|2, 7, 685, 50, 1, 4
|2, 7, 686, 50, 1, 4
|2, 7, 687, 50, 0, 3
|2, 7, 688, 50, 1, 4
|2, 7, 689, 50, 1, 4
|1, 1, 69, 50, 0, 2
|2, 7, 690, 50, 1, 4
|2, 9, 691, 51, 1, 4
|2, 9, 692, 50, 1, 4
|2, 9, 693, 50, 1, 4
|2, 9, 694, 50, 0, 3
|2, 9, 695, 51, 1, 4
|2, 9, 696, 50, 1, 4
|2, 2, 698, 50, 0, 3
|2, 2, 699, 50, 0, 3
|1, 1, 70, 54, 0, 4
|2, 2, 700, 50, 0, 3
|2, 2, 701, 50, 0, 3
|2, 2, 702, 50, 0, 3
|2, 4, 704, 50, 0, 3
|2, 4, 705, 55, 0, 4
|2, 4, 706, 50, 0, 3
|2, 4, 707, 50, 0, 3
|2, 4, 708, 50, 0, 3
|2, 4, 709, 50, 0, 3
|2, 4, 710, 50, 0, 3
|2, 1, 711, 50, 0, 3
|2, 1, 712, 50, 1, 4
|2, 1, 713, 50, 1, 4
|2, 1, 714, 51, 1, 4
|2, 1, 716, 51, 1, 4
|2, 1, 717, 50, 1, 4
|2, 3, 718, 55, 1, 4
|1, 2, 72, 51, 0, 5
|1, 2, 72, 52, 0, 5
|2, 3, 720, 50, 0, 3
|2, 3, 721, 51, 0, 3
|2, 3, 722, 50, 1, 4
|2, 3, 723, 50, 1, 4
|2, 3, 724, 50, 1, 4
|6, 3, 725, 56, 0, 4
|6, 1, 726, 51, 1, 4
|6, 1, 727, 51, 1, 4
|6, 3, 728, 50, 1, 4
|1, 2, 73, 51, 0, 4
|1, 2, 73, 54, 0, 4
|6, 1, 730, 50, 1, 4
|6, 3, 731, 51, 1, 4
|6, 3, 732, 50, 1, 4
|6, 3, 733, 51, 1, 4
|6, 3, 734, 51, 1, 4
|6, 1, 735, 51, 1, 4
|6, 1, 736, 50, 1, 4
|6, 3, 737, 50, 1, 4
|6, 1, 738, 51, 1, 4
|6, 4, 739, 52, 0, 4
|1, 2, 74, 52, 0, 3
|1, 2, 74, 53, 0, 3
|1, 2, 74, 54, 0, 3
|1, 2, 74, 55, 0, 3
|6, 2, 741, 51, 0, 3
|6, 2, 742, 51, 0, 3
|6, 2, 743, 50, 0, 3
|6, 4, 744, 50, 0, 3
|6, 4, 745, 51, 0, 3
|6, 4, 746, 51, 0, 3
|6, 2, 747, 51, 0, 3
|6, 2, 748, 50, 0, 3
|6, 4, 749, 50, 0, 3
|6, 4, 750, 50, 0, 3
|6, 8, 754, 50, 0, 3
|6, 8, 755, 51, 0, 3
|6, 8, 757, 50, 0, 3
|6, 8, 758, 50, 0, 3
|6, 8, 759, 50, 0, 3
|1, 2, 76, 53, 0, 4
|1, 2, 76, 54, 0, 4
|6, 8, 763, 50, 0, 3
|6, 7, 768, 50, 0, 3
|6, 9, 769, 50, 1, 4
|6, 7, 770, 50, 1, 4
|6, 9, 771, 51, 1, 4
|6, 9, 773, 50, 1, 4
|6, 9, 774, 51, 0, 2
|6, 7, 775, 50, 1, 4
|6, 9, 778, 51, 1, 4
|6, 7, 779, 50, 1, 4
|1, 2, 78, 50, 0, 3
|6, 7, 781, 50, 1, 4
|6, 9, 782, 50, 1, 4
|6, 7, 784, 50, 1, 4
|1, 2, 786, 50, 0, 5
|1, 2, 786, 51, 0, 5
|1, 4, 787, 50, 0, 3
|8, 2, 789, 52, 0, 5
|8, 3, 791, 51, 1, 4
|8, 3, 792, 51, 1, 4
|8, 3, 793, 51, 1, 4
|8, 3, 793, 52, 0, 3
|8, 1, 794, 53, 1, 7
|8, 1, 795, 53, 1, 3
|8, 1, 796, 51, 0, 2
|8, 1, 797, 51, 1, 4
|8, 1, 797, 52, 1, 4
|8, 1, 798, 50, 1, 4
|8, 1, 798, 51, 1, 4
|8, 2, 799, 53, 0, 5
|1, 3, 80, 50, 0, 3
|8, 2, 801, 52, 0, 4
|8, 2, 802, 50, 0, 3
|8, 2, 802, 51, 0, 3
|1, 3, 81, 50, 0, 4
|1, 3, 82, 55, 0, 5
|1, 3, 83, 53, 0, 4
|12, 1, 855, 51, 1, 2
|12, 1, 857, 50, 1, 3
|12, 1, 858, 51, 1, 7
|12, 1, 859, 50, 0, 3
|1, 5, 878, 50, 0, 4
|1, 5, 879, 52, 0, 3
|1, 5, 881, 50, 0, 3
|1, 5, 882, 51, 0, 3
|1, 5, 883, 51, 0, 4
|3, 5, 890, 50, 0, 4
|5, 4, 912, 50, 0, 4
|5, 7, 913, 50, 0, 3
|1, 2, 923, 50, 0, 3
|1, 2, 923, 54, 0, 3
|2, 5, 930, 50, 1, 4
|1, 5, 936, 51, 0, 4
|8, 2, 937, 52, 0, 3
|8, 2, 938, 50, 0, 3
|8, 3, 939, 53, 1, 4
|8, 4, 940, 53, 0, 4
|8, 5, 941, 52, 1, 4
|8, 5, 942, 50, 1, 4
|8, 5, 943, 53, 1, 4
|8, 5, 944, 51, 1, 4
|8, 6, 946, 50, 0, 3
|8, 5, 947, 51, 0, 3
|8, 6, 948, 50, 0, 3
|8, 6, 949, 50, 0, 3
|12, 1, 950, 55, 1, 4
|12, 2, 951, 50, 1, 6
|12, 2, 952, 50, 1, 4
|12, 2, 953, 50, 0, 3
|12, 2, 954, 50, 1, 4
|12, 2, 955, 50, 1, 4
|5, 8, 956, 50, 0, 3
|8, 5, 957, 50, 1, 4
|8, 6, 959, 50, 0, 3
|4, 5, 960, 51, 0, 3
|4, 5, 961, 52, 0, 4
|4, 5, 962, 50, 0, 4
|4, 5, 962, 51, 0, 4
|4, 5, 963, 50, 0, 3
|4, 5, 964, 50, 0, 3
|4, 5, 965, 50, 0, 4
|4, 5, 965, 51, 0, 4
|6, 2, 966, 56, 0, 3
|12, 1, 967, 50, 0, 3
|6, 4, 968, 50, 0, 3
|6, 5, 969, 51, 1, 4
|6, 5, 970, 51, 1, 4
|6, 5, 971, 50, 1, 4
|6, 5, 972, 50, 1, 4
|6, 5, 973, 50, 1, 4
|11, 3, 974, 50, 0, 4
|6, 5, 975, 50, 1, 4
|6, 5, 976, 51, 0, 3
|11, 3, 977, 50, 0, 3
|11, 3, 978, 50, 0, 4
|11, 3, 979, 50, 0, 3
|11, 3, 980, 50, 0, 3
|6, 6, 981, 52, 0, 4
|11, 3, 982, 50, 0, 4
|6, 6, 985, 50, 0, 3
|6, 6, 986, 50, 0, 3
|6, 6, 987, 50, 0, 3
|6, 6, 988, 50, 0, 3
|6, 6, 989, 50, 0, 3
|6, 6, 990, 50, 0, 3
|2, 2, 991, 51, 0, 3
|2, 2, 992, 50, 0, 3
|2, 3, 993, 50, 1, 4
|2, 5, 994, 54, 0, 4
|2, 5, 995, 50, 1, 4
|2, 5, 996, 50, 0, 3
|2, 5, 997, 50, 1, 4
|2, 5, 998, 50, 1, 4
|2, 5, 999, 50, 1, 4
|];
Da=[{1, 169, 181, 273, 334},
{2, 179},
{3, 213, 335},
{4, 163, 184, 196, 212, 221},
{5, 150, 338},
{6, 188, 215, 223, 234},
{7, 20},
{8, 158, 283},
{9, 11, 12, 101, 103, 267},
{10, 34, 256},
{13, 35, 95, 290},
{14, 252},
{15},
{16, 154},
{17, 31, 33, 48, 49},
{18, 106},
{19, 74, 75, 272, 316},
{21},
{22, 113},
{23, 24, 123},
{25, 132, 133, 322},
{26, 29, 120},
{27, 72, 138, 139},
{28, 76, 127, 309},
{30},
{32, 42, 251, 293},
{36, 40, 255},
{37, 242},
{38, 39},
{41, 108, 145},
{43, 269},
{44, 250, 265, 292, 294},
{45, 60, 61, 63, 64, 165},
{46, 52, 55, 56},
{47, 203},
{50, 51},
{53},
{54, 297},
{57, 66},
{58},
{59},
{62},
{65, 310},
{67, 168, 275, 300},
{68},
{69},
{70, 73, 321},
{71, 118, 128, 129, 263, 280, 319},
{77, 81},
{78, 305, 307},
{79, 80},
{82, 87},
{83, 85},
{84, 86, 90},
{88},
{89, 240, 241},
{91, 162, 295},
{92, 271},
{93, 164, 194, 262, 282},
{94, 299},
{96, 97, 268},
{98, 249, 285},
{99, 102, 171, 214},
{100, 116, 301, 311},
{104, 270},
{105, 107},
{109},
{110, 111, 121},
{112},
{114, 115, 122},
{117},
{119, 130},
{124},
{125},
{126, 176, 278, 284},
{131},
{134},
{135, 136},
{137, 175, 209},
{140, 224, 225, 245, 257},
{141, 205, 206, 207, 258, 259},
{142, 178},
{143, 156, 166},
{144, 153, 160},
{146, 172, 266},
{147, 180, 192, 216},
{148, 167, 339},
{149},
{151, 195},
{152, 157},
{155, 174},
{159, 312},
{161},
{170, 199},
{173, 186, 228, 337},
{177, 191, 287},
{182, 183, 261},
{185, 218},
{187, 227},
{189, 193},
{190, 210, 243},
{197, 333},
{198},
{200},
{201, 326},
{202, 315},
{204, 323},
{208, 244},
{211},
{217, 231, 239, 313, 329},
{219, 230},
{220},
{222},
{226, 233, 327},
{229, 318},
{232, 336},
{235, 328},
{236, 276, 279, 281, 331},
{237, 330},
{238, 317},
{246, 247, 253, 254, 260},
{248},
{264, 296},
{274},
{277},
{286, 332},
{288, 289, 298},
{291},
{302},
{303, 304},
{306},
{308},
{314, 325},
{320},
{324}
];
Ad=[1, 2, 3, 4, 5, 6, 7, 8, 9, 10, 9, 9, 11, 12, 13, 14, 15, 16, 17, 7, 18, 19, 20, 20, 21, 22, 23, 24, 22, 25, 15, 26, 15, 10, 11, 27, 28, 29, 29, 27, 30, 26, 31, 32, 33, 34, 35, 15, 15, 36, 36, 34, 37, 38, 34, 34, 39, 40, 41, 33, 33, 42, 33, 33, 43, 39, 44, 45, 46, 47, 48, 23, 47, 17, 17, 24, 49, 50, 51, 51, 49, 52, 53, 54, 53, 54, 52, 55, 56, 54, 57, 58, 59, 60, 11, 61, 61, 62, 63, 64, 9, 63, 9, 65, 66, 16, 66, 30, 67, 68, 68, 69, 19, 70, 70, 64, 71, 48, 72, 22, 68, 70, 20, 73, 74, 75, 24, 48, 48, 72, 76, 21, 21, 77, 78, 78, 79, 23, 23, 80, 81, 82, 83, 84, 30, 85, 86, 87, 88, 5, 89, 90, 84, 14, 91, 83, 90, 8, 92, 84, 93, 57, 4, 59, 33, 83, 87, 44, 1, 94, 63, 85, 95, 91, 79, 75, 96, 82, 2, 86, 1, 97, 97, 4, 98, 95, 99, 6, 100, 101, 96, 86, 100, 59, 89, 4, 102, 103, 94, 104, 105, 106, 35, 107, 81, 81, 81, 108, 79, 101, 109, 4, 3, 63, 6, 86, 110, 98, 111, 112, 4, 113, 6, 80, 80, 114, 99, 95, 115, 111, 110, 116, 114, 6, 117, 118, 119, 120, 110, 56, 56, 28, 101, 108, 80, 121, 121, 122, 62, 32, 26, 12, 121, 121, 27, 10, 80, 81, 81, 121, 97, 59, 48, 123, 32, 85, 9, 61, 31, 65, 58, 17, 1, 124, 44, 118, 125, 75, 118, 48, 118, 59, 8, 75, 62, 126, 96, 127, 127, 11, 128, 32, 26, 32, 57, 123, 38, 127, 60, 44, 64, 129, 130, 130, 50, 131, 50, 132, 24, 43, 64, 92, 110, 133, 106, 17, 120, 115, 48, 134, 47, 21, 107, 135, 133, 105, 114, 117, 110, 119, 118, 126, 102, 1, 3, 116, 95, 5, 87];
D=[|false, false, false, false, false, false, false, false, false, false, false, false, false, false, false, false, false, false, false, false, false, false, false, false, false, false, false, false, false, false, false, false, false, false, false, false, false, false, false, false, false, false, false, false, false, false, false, false, false, false, false, false, false, false, false, false, false, false, false, false, false, false, false, false, false, false, false, false, false, false, false, false, false, false, false, false, false, false, false, false, false, false, false, false, false, false, false, false, false, false, false, false, false, false, false, false, false, false, false, false, false, false, false, false, false, false, false, false, false, false, false, false, false, false, false, false, false, false, false, false, false, false, false, false, false, false, true , false, false, false, false, false, false, false, false
|true , false, false, true , false, false, false, false, false, false, false, false, false, false, true , false, true , false, false, false, false, false, false, false, false, false, true , false, false, true , false, false, false, false, false, false, false, false, false, false, false, false, false, false, false, false, false, true , false, false, false, false, false, false, false, false, false, false, true , false, false, false, false, false, true , false, false, true , false, false, false, false, false, false, false, false, false, false, false, false, false, false, false, false, false, false, false, false, false, false, false, false, false, false, false, false, false, false, false, false, true , false, false, false, false, false, false, false, false, false, false, false, false, false, false, false, false, false, true , false, false, true , false, false, false, false, true , false, false, false, true , false, false, false, false
|true , false, false, true , false, false, false, false, false, false, false, false, false, false, true , false, true , false, false, false, false, false, false, false, false, false, true , false, false, true , false, false, false, false, false, false, false, false, false, false, false, false, false, false, false, false, false, true , false, false, false, false, false, false, false, false, false, false, true , false, false, false, false, false, true , false, false, true , false, false, false, false, false, false, false, false, false, false, false, false, false, false, false, false, false, false, false, false, false, false, false, false, false, false, false, false, false, false, false, false, true , false, false, false, false, false, false, false, false, false, false, false, false, false, false, false, false, false, true , false, false, true , false, false, false, false, true , false, false, false, true , false, false, false, false
|true , false, false, true , false, false, false, false, false, false, true , false, false, false, true , false, true , false, false, false, false, false, false, false, false, false, true , false, false, true , false, false, false, false, false, false, false, false, false, false, false, false, false, false, false, false, false, true , false, true , false, false, false, false, false, false, false, false, true , false, false, false, false, false, true , false, false, true , false, false, false, false, false, false, false, false, false, false, false, false, false, false, false, false, false, false, false, false, false, false, false, false, false, false, false, false, false, false, false, false, true , false, false, false, false, false, false, false, false, false, false, false, false, false, false, false, false, false, true , false, false, true , false, false, false, false, false, false, false, false, true , false, false, false, true 
|true , false, false, false, false, false, false, false, false, false, true , false, false, false, true , true , true , false, false, false, false, true , false, false, false, false, true , false, false, false, false, false, false, false, false, false, false, false, false, false, false, false, false, false, false, false, false, true , false, true , false, false, false, false, false, true , false, false, true , false, false, false, false, false, false, false, false, true , false, false, false, false, false, false, false, false, false, false, false, false, false, false, false, false, false, false, false, false, false, false, false, false, false, false, false, false, true , false, false, false, false, false, false, false, false, false, false, false, false, false, false, false, false, false, false, false, false, false, false, false, false, false, false, false, false, false, false, false, false, false, true , false, false, false, true 
|true , false, false, false, false, false, false, false, false, false, true , false, false, false, true , true , true , false, false, false, false, true , false, false, false, false, true , false, false, false, false, false, false, false, false, false, false, false, false, false, false, false, false, false, false, false, false, true , false, true , false, false, false, false, false, true , false, false, true , false, false, false, false, false, false, false, false, true , false, false, false, false, false, false, false, false, false, false, false, false, false, false, false, false, false, false, false, false, false, false, false, false, false, false, false, false, true , false, false, false, false, false, false, false, false, false, false, false, false, false, false, false, false, false, false, false, false, false, false, false, false, false, false, false, false, false, false, false, false, false, true , false, false, false, true 
|false, false, false, false, false, false, false, false, false, false, false, false, false, false, true , true , false, false, false, false, false, true , false, false, false, false, true , false, false, false, false, false, false, false, false, false, false, false, false, false, false, false, false, false, false, false, false, true , false, false, false, false, false, false, false, true , false, false, true , false, false, false, false, false, false, false, false, false, false, false, false, false, false, false, false, false, false, false, false, false, false, false, false, false, false, false, false, false, false, false, false, false, false, false, false, false, true , false, false, false, false, false, false, false, false, false, false, false, false, false, false, false, false, false, false, false, false, false, false, false, false, false, false, false, false, false, false, false, false, false, false, false, false, false, true 
|false, false, false, false, false, false, false, false, false, false, false, false, false, false, false, false, false, false, false, false, false, false, false, false, false, false, false, false, false, false, false, true , false, false, false, false, false, false, false, false, false, false, false, false, false, false, false, true , false, false, false, false, true , true , false, false, false, false, false, false, false, false, false, false, false, false, false, false, false, false, false, false, true , false, false, false, false, false, false, false, false, false, false, false, false, false, false, false, false, false, false, false, false, false, false, false, false, false, false, false, false, false, false, false, false, false, false, false, false, false, false, false, false, false, false, false, false, false, false, false, false, false, false, false, false, false, false, false, false, false, false, false, false, false, false
|false, false, true , false, false, false, false, true , false, false, true , false, false, false, false, false, true , false, false, false, false, true , false, false, false, false, true , false, false, false, false, true , false, false, false, false, false, false, false, false, false, false, false, false, false, false, true , true , false, false, false, false, true , true , false, false, false, false, false, false, false, false, false, false, false, false, false, false, false, false, false, false, true , false, false, false, false, false, false, false, true , false, false, false, false, false, false, false, false, false, false, false, false, false, true , false, false, false, false, false, false, false, false, false, false, false, false, false, false, false, false, false, false, false, false, false, false, false, false, false, false, false, false, false, false, false, false, false, false, false, false, false, false, false, false
|false, false, true , false, false, false, false, true , false, false, true , false, true , false, false, false, true , false, false, false, false, true , false, false, false, false, true , false, false, false, false, true , false, false, false, false, false, false, false, false, false, false, false, true , false, false, true , true , false, false, false, false, true , true , false, false, false, false, false, false, false, false, false, false, false, false, false, false, false, false, false, false, true , false, false, false, false, false, false, false, true , false, false, false, false, false, false, false, false, false, false, false, false, false, true , false, true , false, false, false, false, false, false, false, false, false, false, false, false, false, true , false, false, false, false, false, false, false, false, false, false, false, false, false, false, false, false, false, false, false, false, false, true , false, false
|false, false, true , false, false, false, false, true , false, false, true , false, true , false, false, false, true , false, false, false, false, true , false, false, false, false, true , false, false, false, false, false, false, false, false, false, false, false, false, false, false, false, false, true , false, false, true , true , false, false, false, false, true , true , false, false, false, false, false, false, false, false, false, false, false, false, false, false, false, false, false, false, true , false, false, false, false, false, false, false, true , false, false, false, false, false, false, false, false, false, false, false, false, false, true , false, true , false, false, false, false, false, false, false, false, false, false, false, false, false, true , false, false, false, false, false, false, false, false, false, false, false, false, false, false, false, false, false, false, false, false, false, true , false, false
|false, false, false, false, false, false, false, true , false, false, false, false, true , false, false, false, true , false, false, false, false, false, false, false, false, false, false, false, false, false, false, false, false, false, false, false, false, false, false, false, false, false, false, true , false, false, false, true , false, false, false, false, false, false, false, false, false, false, false, false, false, false, false, false, false, false, false, false, false, false, false, false, true , false, false, false, false, false, false, false, false, false, false, false, false, false, false, false, false, false, false, false, false, false, true , false, true , false, false, false, false, false, false, false, false, false, false, false, false, false, true , false, false, false, false, false, false, false, false, false, false, false, false, false, false, false, false, false, false, false, false, false, true , false, false
|false, false, false, false, false, false, false, true , false, false, false, false, false, false, false, false, false, false, false, false, false, false, false, false, false, false, true , false, false, true , false, true , false, false, true , false, false, false, false, false, false, false, false, true , false, false, false, true , false, false, false, false, false, false, false, false, false, false, false, false, false, false, false, true , false, false, false, false, false, false, false, false, false, false, true , false, false, false, false, false, false, false, false, false, false, true , false, true , false, false, false, false, false, false, true , false, false, false, false, false, false, false, false, false, false, false, false, true , false, false, true , false, false, false, true , false, false, false, true , false, false, true , false, false, true , true , false, false, false, false, false, false, true , false, false
|false, false, false, false, false, false, false, true , false, false, false, false, false, false, false, false, false, false, false, false, false, false, false, false, false, false, true , false, false, true , false, true , false, false, true , false, false, false, false, false, false, false, false, true , false, false, false, true , false, false, false, false, false, false, false, false, false, false, false, false, false, false, false, true , false, false, false, false, false, false, false, false, false, false, true , false, false, false, false, false, false, false, false, false, false, true , false, true , false, false, false, false, false, false, true , false, false, false, false, false, false, false, false, false, false, false, false, true , false, false, true , false, false, false, true , false, false, false, true , false, false, true , false, false, true , true , false, false, false, false, false, false, true , false, false
|false, false, false, false, false, false, false, true , false, false, false, false, false, false, false, false, false, false, false, false, false, false, false, false, false, false, true , false, false, true , false, true , false, false, true , false, false, false, false, false, false, false, false, true , false, false, false, true , false, false, false, false, false, false, false, false, false, false, false, false, false, false, false, true , false, false, false, false, false, false, false, false, false, false, true , false, false, false, false, false, false, false, false, false, false, true , false, true , false, false, false, false, false, false, true , false, false, false, false, false, false, false, false, false, false, false, false, true , false, false, true , false, false, false, true , false, false, false, true , false, false, true , false, false, true , true , false, false, false, false, false, false, true , false, false
|false, false, false, false, false, false, false, true , false, false, false, false, false, false, false, false, false, false, false, false, false, false, false, false, false, false, true , false, false, true , false, true , false, false, true , false, false, false, false, false, false, false, false, true , false, false, false, true , false, false, false, false, false, false, false, false, false, false, false, false, false, false, false, true , false, false, false, false, false, false, false, false, false, false, true , false, false, false, false, false, false, false, false, false, false, true , false, true , false, false, false, false, false, false, true , false, false, false, false, false, false, false, false, false, false, false, false, true , false, false, true , false, false, false, true , false, false, false, true , false, false, true , false, false, true , true , false, false, false, false, false, false, true , false, false
|false, false, false, false, false, false, false, false, false, false, false, false, false, false, false, false, false, false, false, false, false, false, false, false, false, false, false, false, false, false, false, false, true , false, false, false, false, false, false, false, false, false, false, false, false, false, false, false, false, false, false, false, false, false, false, false, false, false, false, false, false, false, false, false, false, false, false, false, false, false, false, false, false, false, false, false, true , false, false, false, false, false, false, false, false, false, false, false, false, false, false, false, false, false, false, false, false, false, false, false, false, false, false, false, false, false, false, false, false, false, false, false, false, false, false, false, false, false, false, false, false, false, false, false, false, false, false, false, false, false, false, false, false, false, false
|false, false, false, false, false, true , false, false, true , true , false, true , false, false, true , false, false, false, false, true , false, false, false, false, false, false, true , true , true , false, false, false, true , true , false, false, false, false, false, false, false, true , false, false, false, true , false, false, true , true , true , false, false, false, false, true , false, true , false, false, false, false, false, true , true , false, false, true , true , true , false, false, false, false, false, false, true , false, false, false, true , false, true , false, false, false, false, false, false, false, false, false, false, false, false, false, false, true , false, false, false, false, false, false, false, false, false, false, false, false, false, false, false, false, false, false, false, false, false, false, false, true , false, false, false, false, true , false, false, false, false, false, false, false, false
|false, false, false, false, false, true , false, false, true , true , false, true , false, false, true , false, false, false, false, true , false, false, false, false, false, false, true , true , true , false, false, false, true , true , false, false, false, false, false, false, false, true , false, false, false, true , false, false, true , true , true , false, false, false, false, true , false, true , false, false, false, false, false, true , true , false, false, true , true , true , false, false, false, false, false, false, true , false, false, false, true , false, true , false, false, false, false, false, false, false, false, false, false, false, false, false, false, true , false, false, false, false, false, false, false, false, false, false, false, false, false, false, false, false, false, false, false, false, false, false, false, true , false, false, false, false, true , false, false, false, false, false, false, false, false
|false, false, false, false, false, true , false, false, true , true , false, true , false, false, true , false, false, false, false, true , false, false, false, false, false, false, true , true , true , false, false, false, false, true , false, false, false, false, false, true , false, true , false, false, false, true , false, false, true , true , true , false, false, false, false, true , false, true , false, false, false, false, false, true , true , false, false, true , true , true , false, false, false, false, false, false, false, false, false, false, true , false, true , false, false, false, false, false, false, false, false, false, false, false, false, false, false, true , false, false, false, false, false, false, false, false, false, false, false, false, false, false, false, false, false, false, false, false, false, false, false, true , false, false, false, false, true , false, false, false, false, false, false, false, false
|false, false, true , false, false, false, false, false, true , true , false, true , false, false, true , false, false, false, false, true , false, false, false, false, false, false, true , false, false, false, false, false, true , true , false, false, false, true , false, true , false, true , false, false, false, true , false, false, true , true , true , false, false, false, false, false, false, true , false, false, false, false, false, true , false, false, false, false, false, true , false, false, false, false, false, false, false, false, false, false, false, true , false, false, false, false, false, false, false, false, false, false, false, false, false, false, false, false, false, false, false, false, false, false, true , false, false, false, false, false, false, false, true , false, false, false, false, false, false, false, false, false, false, false, false, false, false, false, false, false, false, false, false, false, false
|false, false, true , false, false, false, false, false, true , true , false, true , false, false, true , false, false, false, false, true , false, false, false, false, false, false, true , false, false, false, false, false, true , true , false, false, false, true , false, true , false, true , false, false, false, true , false, false, true , true , true , false, false, false, false, false, false, true , false, false, false, false, false, true , false, false, false, false, false, true , false, false, false, false, false, false, false, false, false, false, false, true , false, false, false, false, false, false, false, false, false, false, false, false, false, false, false, false, false, false, false, false, false, false, true , false, false, false, false, false, false, false, true , false, false, false, false, false, false, false, false, false, false, false, false, false, false, false, false, false, false, false, false, false, false
|false, false, true , false, false, false, false, false, true , true , false, true , false, false, true , false, false, false, false, true , false, false, false, false, false, false, true , false, false, false, false, false, true , false, false, false, false, true , false, false, false, false, false, false, false, true , false, false, true , true , true , false, false, false, false, false, false, false, false, false, false, false, false, true , false, false, false, false, false, false, false, false, false, false, false, false, false, false, false, false, false, true , false, false, false, false, false, false, false, false, false, false, false, false, false, false, false, false, false, false, false, false, false, false, true , false, false, false, false, false, false, false, true , false, false, false, false, false, false, false, false, false, false, false, false, false, false, false, false, false, false, false, false, false, false
|false, false, false, false, false, false, false, false, true , false, false, false, false, false, false, false, false, false, false, false, false, false, false, false, false, false, false, false, false, false, false, false, false, true , false, false, false, true , false, false, false, false, false, false, false, false, false, false, false, false, false, false, false, false, false, false, false, false, true , false, false, false, false, true , false, false, false, false, false, true , false, false, false, false, false, false, false, false, false, false, true , false, false, false, false, false, false, false, false, false, false, false, false, false, false, false, false, false, false, false, false, false, false, false, false, false, false, false, false, false, false, false, false, false, false, false, false, false, false, false, false, false, false, false, false, false, false, false, false, false, false, false, false, false, false
|false, false, false, false, false, false, false, false, true , false, false, false, false, false, false, false, true , false, true , true , false, true , false, false, false, false, false, false, false, false, false, false, true , true , false, false, false, true , false, true , false, false, false, true , false, false, false, false, false, true , false, false, false, true , false, false, false, false, true , false, false, false, false, true , false, false, false, false, false, true , false, false, false, false, false, false, false, false, false, false, true , false, false, false, false, false, false, false, false, false, false, false, false, true , false, false, true , false, false, false, false, false, false, false, false, false, false, false, false, false, false, false, false, false, false, false, false, false, false, false, false, false, false, false, false, false, false, false, false, false, false, false, false, false, false
|false, false, false, true , false, false, false, false, true , false, false, false, false, false, true , false, true , false, true , true , false, true , false, false, true , false, false, false, false, false, false, false, true , true , false, false, false, true , false, true , false, false, false, true , false, false, false, false, false, true , false, false, false, true , false, false, false, false, true , false, false, false, false, true , false, false, false, false, false, true , false, false, false, false, false, false, true , true , false, false, true , false, false, false, true , false, false, false, false, false, false, false, false, true , false, false, true , false, false, false, false, false, false, false, false, false, false, false, false, false, false, false, false, true , false, false, false, true , false, false, false, false, false, false, false, false, false, false, false, false, false, true , false, false, false
|false, false, false, true , false, false, false, false, false, false, false, false, false, false, true , false, true , false, true , true , false, true , false, false, true , false, false, false, false, false, false, false, true , true , false, false, false, true , false, true , false, false, false, true , false, false, false, false, false, true , false, false, false, true , false, false, false, false, true , false, false, false, false, true , false, false, false, false, false, true , false, false, false, false, false, false, true , true , false, false, false, false, false, false, true , false, false, false, false, false, false, false, false, true , false, false, true , false, false, false, false, false, false, false, false, false, false, false, false, false, false, false, false, true , false, false, false, true , false, false, false, false, false, false, false, false, false, false, false, false, false, true , false, false, false
|false, false, false, true , false, false, false, false, false, false, false, false, false, false, true , false, true , false, false, false, false, false, false, false, true , false, false, false, false, false, false, false, false, true , false, false, false, true , false, true , false, false, false, false, false, false, false, false, false, false, false, false, false, false, false, false, false, false, false, false, false, false, false, false, false, false, false, false, false, false, false, false, false, false, false, false, true , true , false, false, false, false, false, false, true , false, false, false, false, false, false, false, false, true , false, false, false, false, false, false, false, false, false, false, false, false, false, false, false, false, false, false, false, true , false, false, false, true , false, false, false, false, false, false, false, false, false, false, false, false, false, true , false, false, false
|true , false, false, false, false, false, false, false, false, false, false, true , false, false, false, true , false, false, false, false, false, false, false, false, false, true , false, false, false, false, false, false, false, false, false, false, false, true , false, false, false, false, false, false, false, false, false, false, false, false, false, false, false, false, false, true , false, false, true , false, false, false, false, true , false, false, false, false, false, false, false, false, false, false, true , false, true , false, false, false, false, false, false, true , false, false, true , false, true , false, true , false, false, true , false, true , false, false, false, false, false, false, false, true , false, false, false, false, false, false, false, false, false, false, true , false, false, false, false, true , true , false, false, false, false, false, false, true , false, false, false, false, false, false, false
|true , false, false, false, false, false, false, false, false, false, false, true , false, false, false, true , false, false, false, false, false, false, false, false, false, true , false, false, false, false, false, false, false, false, false, false, false, true , false, false, false, false, false, false, false, false, false, false, false, false, false, false, false, false, false, true , false, false, true , false, false, false, false, true , false, false, false, false, false, false, false, false, false, false, true , false, true , false, false, false, false, false, false, true , false, false, true , false, true , false, true , false, false, true , false, true , false, false, false, false, false, false, false, true , false, false, false, false, false, false, false, false, false, false, true , false, false, false, false, true , true , false, false, false, false, false, false, true , false, false, false, false, false, false, false
|true , false, false, false, false, false, false, false, false, false, false, true , false, false, false, true , false, false, false, false, false, false, false, false, false, true , false, false, false, false, false, false, false, false, false, false, false, true , false, false, false, false, false, false, false, false, false, false, false, false, false, false, false, false, false, true , false, false, true , false, false, false, false, true , false, false, false, false, false, false, false, false, false, false, true , false, true , false, false, false, false, false, false, true , false, false, true , false, true , false, true , false, false, true , false, true , false, false, false, false, false, false, false, true , false, false, false, false, false, false, false, false, false, false, true , false, false, false, false, true , true , false, false, false, false, false, false, true , false, false, false, false, false, false, false
|true , false, false, false, false, false, false, false, false, false, false, true , false, false, false, true , false, false, false, false, false, false, false, false, false, true , false, false, false, false, false, false, false, false, false, false, false, true , false, false, false, false, false, false, false, false, false, false, false, false, false, false, false, false, false, true , false, false, true , false, false, false, false, true , false, false, false, false, false, false, false, false, false, false, true , false, true , false, false, false, false, false, false, true , false, false, true , false, true , false, true , false, false, true , false, true , false, false, false, false, false, false, false, true , false, false, false, false, false, false, false, false, false, false, true , false, false, false, false, true , true , false, false, false, false, false, false, true , false, false, false, false, false, false, false
|false, false, false, false, false, false, false, false, false, false, false, false, false, false, false, false, false, false, false, false, false, false, false, false, true , false, false, false, false, false, false, false, false, false, false, false, false, false, false, false, false, false, false, false, false, false, false, false, false, false, false, false, false, false, false, false, false, false, false, false, false, false, false, false, false, false, false, false, false, false, false, false, false, false, false, false, false, false, false, false, false, false, false, false, false, false, false, false, false, false, false, false, false, false, false, false, false, false, false, false, false, false, false, false, false, false, false, false, false, false, false, false, false, false, false, false, false, false, false, false, false, false, false, false, false, false, false, false, false, false, false, false, false, false, false
|false, false, false, false, false, false, false, false, true , false, true , false, false, true , false, false, true , false, false, false, true , false, false, false, true , true , false, true , true , false, false, true , true , false, false, false, false, true , false, false, false, false, false, false, false, false, false, true , false, false, false, false, false, true , false, false, false, true , false, false, false, false, false, false, true , false, true , true , false, false, false, false, false, false, false, false, false, false, false, true , false, false, true , false, false, false, true , false, false, false, false, false, false, false, false, false, true , false, false, false, false, false, false, false, false, false, true , false, false, false, false, false, false, false, false, false, false, false, false, false, false, false, false, false, false, false, true , false, false, false, false, false, false, false, false
|false, false, false, false, false, false, false, false, true , false, true , false, false, true , false, false, true , false, false, false, true , false, false, false, true , true , false, true , true , false, false, true , true , false, false, false, false, true , false, false, false, false, false, false, false, false, false, true , false, false, false, false, false, true , false, false, false, true , false, false, false, false, false, false, true , false, true , true , false, false, false, false, false, false, false, false, false, false, false, true , false, false, true , false, false, false, true , false, false, false, false, false, false, false, false, false, true , false, false, false, false, false, false, false, false, false, true , false, false, false, false, false, false, false, false, false, false, false, false, false, false, false, false, false, false, false, true , false, false, false, false, false, false, false, false
|false, false, false, false, false, false, false, false, true , false, true , false, false, true , false, false, true , false, false, false, true , false, false, false, false, true , false, true , true , false, false, true , true , false, false, false, false, true , false, false, false, false, false, false, false, false, false, true , false, false, false, false, false, true , false, true , false, true , false, false, false, false, false, false, true , false, true , true , false, false, false, false, false, false, false, false, false, false, false, true , false, false, true , false, false, false, true , false, false, false, false, false, false, false, false, false, true , false, false, false, false, false, false, false, false, false, true , false, false, true , false, false, false, false, false, false, false, false, false, false, false, false, false, true , false, false, true , false, false, true , false, false, false, false, false
|false, false, false, true , true , false, false, false, true , false, false, false, false, true , false, false, true , false, false, false, true , false, false, false, false, false, false, false, false, false, false, false, true , true , false, false, false, true , false, false, false, false, false, false, false, false, true , true , false, false, false, false, false, true , false, true , true , true , true , false, false, false, false, false, false, false, true , true , false, false, false, false, false, false, false, false, false, false, false, true , false, false, false, false, false, false, false, false, false, false, false, false, false, false, false, false, false, false, false, false, false, false, false, false, true , false, true , false, false, true , false, false, false, false, false, false, false, false, false, false, false, false, false, true , false, false, false, false, false, true , false, false, false, false, false
|false, false, false, true , true , false, false, false, true , false, false, false, false, true , false, false, true , false, false, false, true , false, false, false, false, false, false, false, false, false, false, false, true , true , false, false, false, true , false, false, false, false, false, false, false, false, true , true , false, false, false, false, false, true , false, true , true , true , true , false, false, false, false, false, false, false, true , true , false, false, false, false, false, false, false, false, false, false, false, true , false, false, false, false, false, false, false, false, false, false, false, false, false, false, false, false, false, false, false, false, false, false, false, false, true , false, true , false, false, true , false, false, false, false, false, false, false, false, false, false, false, false, false, true , false, false, false, false, false, true , false, false, false, false, false
|false, false, false, true , true , false, false, false, true , false, false, false, false, true , false, false, false, false, false, false, true , false, false, false, false, false, false, false, false, false, false, false, false, true , false, false, false, true , false, false, false, false, false, false, false, false, true , true , false, false, false, false, false, true , false, true , true , false, true , false, false, false, false, false, false, false, true , false, false, false, false, false, false, false, false, false, false, false, false, false, false, false, false, false, false, false, false, false, false, false, false, false, false, false, false, false, false, false, false, false, false, false, false, false, true , false, false, false, false, true , false, false, false, false, false, false, false, false, false, false, false, false, false, false, false, false, false, false, false, false, false, false, false, false, false
|false, false, false, false, false, false, false, false, false, false, false, false, false, false, false, false, true , false, false, false, false, false, false, false, false, false, false, false, false, false, false, false, false, false, false, false, false, true , true , false, false, false, false, false, false, false, false, false, false, false, false, false, false, false, false, false, false, false, false, false, false, false, false, true , false, false, false, false, false, false, false, false, false, false, false, false, false, false, false, false, false, false, false, false, false, false, false, false, false, false, false, false, false, false, false, false, false, false, false, false, false, false, false, false, false, false, false, false, true , false, false, false, false, false, false, false, false, false, false, false, false, false, false, false, false, false, false, false, false, false, false, false, false, false, false
|false, false, false, false, false, false, true , false, false, false, true , false, false, false, true , false, true , false, false, false, false, false, false, false, false, false, false, false, false, false, true , false, false, false, false, false, false, true , true , false, false, false, false, true , false, false, true , true , false, false, false, false, true , false, false, true , true , false, false, false, false, false, true , true , false, false, false, false, true , false, false, false, false, false, false, false, false, false, false, true , false, false, false, false, false, false, false, false, false, false, false, false, false, false, false, false, false, false, false, false, false, false, false, false, false, false, false, false, true , false, false, false, false, false, false, false, false, false, false, false, false, false, false, false, false, false, false, false, true , true , false, false, false, false, false
|false, false, false, true , false, true , true , false, false, false, true , false, false, false, true , false, true , false, false, false, false, false, false, false, false, false, false, false, false, false, true , false, true , false, false, false, false, true , true , false, false, false, false, true , false, false, true , true , false, false, false, false, true , false, true , true , true , false, false, false, false, false, true , true , false, false, false, true , true , false, false, false, false, false, false, false, false, false, true , true , false, false, false, false, false, false, true , false, false, false, false, false, false, false, false, false, false, false, false, false, false, false, false, false, false, false, false, false, true , false, false, false, false, false, false, false, false, true , false, false, false, false, false, false, false, false, false, false, true , true , false, false, false, false, false
|false, false, false, true , false, true , true , false, false, false, true , false, false, false, true , false, true , false, false, false, false, false, false, false, false, false, false, false, false, false, true , false, true , false, false, false, false, false, true , false, false, false, false, true , false, false, true , true , false, false, false, false, true , false, true , true , true , false, false, false, false, false, true , true , false, false, false, true , true , false, false, false, false, false, false, false, false, false, true , true , false, false, false, false, false, false, true , false, false, false, false, false, false, false, false, false, false, false, false, false, false, false, false, false, false, false, false, false, true , false, false, false, false, false, false, false, false, true , false, false, false, false, false, false, false, false, false, false, true , true , false, false, false, false, false
|false, false, false, true , false, true , false, false, false, false, false, false, false, false, false, false, true , false, false, false, false, false, false, false, false, false, false, false, false, false, false, false, true , false, false, false, false, false, true , false, false, false, false, true , false, false, false, true , false, false, false, false, false, false, true , false, false, false, false, false, false, false, true , true , false, false, false, true , false, false, false, false, false, false, false, false, false, false, true , true , false, false, false, false, false, false, true , false, false, false, false, false, false, false, false, false, false, false, false, false, false, false, false, false, false, false, false, false, true , false, false, false, false, false, false, false, false, true , false, false, false, false, false, false, false, false, false, false, true , true , false, false, false, false, false
|false, false, true , false, false, true , false, true , false, false, false, false, false, false, false, false, false, false, false, false, false, false, false, false, false, true , false, false, false, false, false, false, false, false, false, false, false, false, false, false, false, false, false, true , false, false, false, false, false, false, false, false, false, false, false, false, true , false, false, false, false, false, false, false, false, true , false, false, false, false, false, false, false, false, false, false, false, false, false, false, false, true , false, true , false, false, false, false, false, true , false, false, false, false, true , false, false, false, false, false, false, false, true , false, true , false, false, false, false, true , false, false, false, false, false, false, false, true , false, true , true , false, true , false, false, false, false, false, false, false, false, false, false, false, false
|false, false, true , false, false, true , false, true , false, false, false, false, false, false, false, false, false, false, false, false, false, false, false, false, false, true , false, false, false, false, false, false, false, false, false, false, false, false, false, false, false, false, false, true , false, false, false, false, false, false, false, false, false, false, false, false, true , false, false, false, false, false, false, false, false, true , false, false, false, false, false, false, false, false, false, false, false, false, false, false, false, true , false, true , false, false, false, false, false, true , false, false, false, false, true , false, false, false, false, false, false, false, true , false, true , false, false, false, false, true , false, false, false, false, false, false, false, true , false, true , true , false, true , false, false, false, false, false, false, false, false, false, false, false, false
|false, false, true , false, false, true , false, true , false, false, false, false, false, false, false, false, false, false, false, false, false, false, false, false, false, true , false, false, false, false, false, false, false, false, false, false, false, false, false, false, false, false, false, true , false, false, false, false, false, false, false, false, false, false, false, false, true , false, false, false, false, false, false, false, false, true , false, false, false, false, false, false, false, false, false, false, false, false, false, false, false, true , false, true , false, false, false, false, false, true , false, false, false, false, true , false, false, false, false, false, false, false, true , false, true , false, false, false, false, true , false, false, false, false, false, false, false, true , false, true , true , false, true , false, false, false, false, false, false, false, false, false, false, false, false
|false, false, true , false, false, true , false, true , false, false, false, false, false, false, false, false, false, false, false, false, false, false, false, false, false, true , false, false, false, false, false, false, false, false, false, false, false, false, false, false, false, false, false, true , false, false, false, false, false, false, false, false, false, false, false, false, true , false, false, false, false, false, false, false, false, true , false, false, false, false, false, false, false, false, false, false, false, false, false, false, false, true , false, true , false, false, false, false, false, true , false, false, false, false, true , false, false, false, false, false, false, false, true , false, true , false, false, false, false, true , false, false, false, false, false, false, false, true , false, true , true , false, true , false, false, false, false, false, false, false, false, false, false, false, false
|false, false, false, false, false, false, false, false, false, false, false, false, false, false, false, false, false, false, false, false, false, false, false, false, false, false, false, false, false, false, false, false, false, false, false, false, false, false, false, false, false, false, false, false, false, false, false, false, false, false, false, false, false, false, false, false, false, false, false, false, false, false, false, false, false, false, false, false, false, false, false, false, false, false, false, false, false, false, false, false, false, false, false, false, false, false, false, false, false, false, false, false, false, false, false, false, false, false, false, false, false, false, false, false, false, false, false, false, false, false, false, false, false, false, false, false, false, false, false, false, false, false, false, false, false, false, false, false, false, false, false, false, false, false, false
|true , false, false, false, false, false, false, false, true , true , false, false, false, false, false, false, false, false, true , false, true , false, true , true , false, false, false, false, true , false, false, false, false, false, false, false, false, true , true , false, false, false, true , false, false, false, false, false, true , false, true , false, false, false, false, false, false, true , true , false, false, true , false, false, true , false, false, false, false, false, false, true , false, true , false, false, false, false, false, false, true , false, false, true , false, false, false, false, false, false, true , false, false, false, false, true , false, false, false, false, false, true , false, false, false, false, true , false, false, false, false, true , false, false, false, false, false, false, false, false, false, false, false, false, false, true , false, false, false, false, false, false, false, false, false
|true , false, false, false, false, false, false, false, true , true , false, false, false, false, false, false, false, false, true , false, true , false, true , true , false, false, false, false, true , false, false, false, false, false, false, false, false, true , true , false, false, false, true , false, false, false, false, false, true , false, true , false, false, false, false, false, false, true , true , false, false, true , false, false, true , false, false, false, false, false, false, true , false, true , false, false, false, false, false, false, true , false, false, true , false, false, false, false, false, false, true , false, false, false, false, true , false, false, false, false, false, true , false, false, false, false, true , false, false, false, false, true , false, false, false, false, false, false, false, false, false, false, false, false, false, true , false, false, false, false, false, false, false, false, false
|true , false, false, false, false, false, false, false, true , true , false, false, false, false, false, false, false, false, true , false, true , false, true , true , false, false, false, false, true , false, false, false, false, false, false, false, false, true , true , false, false, false, true , false, false, false, false, false, true , false, true , false, false, false, false, true , false, true , true , false, false, true , false, false, true , false, false, false, false, false, false, true , false, true , false, false, false, false, false, false, true , false, false, true , false, true , false, false, false, false, true , false, false, false, false, true , false, false, false, false, false, true , false, false, false, false, true , false, false, true , false, true , false, false, false, false, false, false, false, false, false, false, false, false, false, true , false, false, false, false, false, false, false, false, false
|true , false, false, false, false, false, false, false, true , true , false, false, false, false, false, false, false, false, true , false, true , false, true , false, false, false, false, false, false, false, false, false, false, false, false, false, false, true , true , false, false, false, true , false, false, false, false, false, true , false, true , false, false, false, false, true , false, true , true , false, false, false, false, false, false, false, false, false, false, false, false, true , false, true , false, false, false, false, false, true , false, false, false, false, false, true , false, false, false, false, false, false, false, false, false, false, false, false, false, false, true , false, false, false, false, false, true , false, false, true , false, true , true , false, false, false, false, false, false, false, false, true , false, false, false, false, false, false, false, false, false, false, false, false, false
|true , false, false, false, false, false, false, false, true , true , false, false, false, false, false, false, false, false, true , false, true , false, true , false, false, false, false, false, false, false, false, false, false, false, false, false, false, true , true , false, false, false, true , false, false, false, false, false, true , false, true , false, false, false, false, true , false, true , true , false, false, false, false, false, false, false, false, false, false, false, false, true , false, true , false, false, false, false, false, true , false, false, false, false, false, true , false, false, false, false, false, false, false, false, false, false, false, false, false, false, true , false, false, false, false, false, true , false, false, true , false, true , true , false, false, false, false, false, false, false, false, true , false, false, false, false, false, false, false, false, false, false, false, false, false
|false, false, false, false, false, false, false, false, true , true , false, false, false, false, false, false, false, false, false, false, true , false, false, false, false, false, false, false, false, false, false, false, false, false, false, false, false, true , true , false, false, false, true , false, false, false, false, false, true , false, true , false, false, false, false, false, false, false, false, false, false, false, false, false, false, false, false, false, false, false, false, true , false, false, false, false, false, false, false, true , false, false, false, false, false, false, false, false, false, false, false, false, false, false, false, false, false, false, false, false, true , false, false, false, false, false, false, false, false, true , false, true , true , false, false, false, false, false, false, false, false, true , false, false, false, false, false, false, false, false, false, false, false, false, false
|false, false, false, false, false, false, false, false, true , false, false, false, false, false, false, false, false, false, false, false, false, false, false, false, false, false, false, false, false, false, false, false, false, false, false, false, false, false, false, false, false, false, true , false, false, false, false, false, false, false, false, false, false, false, false, false, false, false, false, false, false, false, false, false, false, false, false, false, false, false, false, false, false, false, false, false, false, false, false, false, false, false, false, false, false, false, false, false, false, false, false, false, false, false, false, false, false, false, false, false, false, false, false, false, false, false, false, false, false, false, false, false, false, false, false, false, false, false, false, false, false, false, false, false, false, false, false, false, false, false, false, false, false, false, false
|false, false, false, false, false, false, true , false, true , false, false, false, false, false, true , false, false, false, true , false, false, false, true , false, false, false, false, false, false, false, true , false, true , false, true , false, false, false, true , false, false, false, true , true , false, false, false, false, false, false, false, false, false, false, false, true , false, false, false, false, false, false, true , false, false, false, false, false, false, false, false, true , false, false, false, false, false, false, false, true , false, false, false, false, true , false, false, false, false, false, false, false, false, false, false, false, false, false, false, false, false, false, false, false, false, false, false, false, false, false, false, false, false, false, false, false, false, false, false, false, false, false, false, false, false, false, false, false, false, false, false, false, false, false, false
|false, true , false, false, false, true , true , false, true , false, false, false, false, false, true , false, false, false, true , false, false, false, true , false, false, false, false, false, false, false, true , false, true , false, true , false, false, false, true , false, false, false, true , true , false, false, false, false, false, false, false, false, false, false, false, true , false, false, false, false, false, false, true , false, false, false, false, false, false, false, false, true , false, false, false, false, false, false, true , true , false, false, false, false, true , false, false, false, false, false, false, false, false, false, false, false, false, false, false, false, false, false, false, false, false, false, false, false, false, false, false, false, false, true , false, false, false, true , false, false, false, true , false, false, false, false, false, false, false, false, false, false, false, false, false
|false, true , false, false, false, true , true , false, false, false, false, false, false, false, true , false, false, false, true , false, false, false, true , false, false, false, false, false, false, false, true , false, true , false, true , false, false, false, true , false, false, false, true , true , false, false, false, false, false, false, false, false, false, false, false, true , false, false, false, false, false, false, true , false, false, false, false, false, false, false, false, true , false, false, false, false, false, false, true , true , false, false, false, false, true , false, false, false, false, false, false, false, false, false, false, false, false, false, false, false, false, false, false, false, false, false, false, false, false, false, false, false, false, true , false, false, false, true , false, false, false, true , false, false, false, false, false, false, false, false, false, false, false, false, false
|false, true , false, false, false, true , false, false, false, false, false, false, false, false, false, false, false, false, false, false, false, false, true , false, false, false, false, false, false, false, false, false, false, false, false, false, false, false, true , false, false, false, true , true , false, false, false, false, false, false, false, false, false, false, false, false, false, false, false, false, false, false, true , false, false, false, false, false, false, false, false, false, false, false, false, false, false, false, true , true , false, false, false, false, true , false, false, false, false, false, false, false, false, false, false, false, false, false, false, false, false, false, false, false, false, false, false, false, false, false, false, false, false, true , false, false, false, true , false, false, false, true , false, false, false, false, false, false, false, false, false, false, false, false, false
|false, true , false, false, true , true , false, false, false, false, false, false, false, false, false, false, false, false, false, false, false, false, false, false, false, false, false, false, false, false, false, true , false, false, false, false, false, false, false, false, false, false, true , true , false, false, false, false, false, false, false, false, false, false, false, false, false, false, false, false, false, true , false, false, false, true , false, false, false, false, false, false, false, false, false, false, false, false, false, false, false, false, true , false, false, false, false, false, false, false, false, false, false, false, true , true , false, false, false, false, false, true , false, false, false, true , false, false, false, true , false, true , false, true , false, false, false, false, false, false, true , true , false, false, false, false, false, false, false, false, false, false, false, false, false
|false, true , false, false, true , true , false, false, false, false, false, false, false, false, false, false, false, false, false, false, false, false, false, false, false, false, false, false, false, false, false, true , false, false, false, false, false, false, false, false, false, false, true , true , false, false, false, false, false, false, false, false, false, false, false, false, false, false, false, false, false, true , false, false, false, true , false, false, false, false, false, false, false, false, false, false, false, false, false, false, false, false, true , false, false, false, false, false, false, false, false, false, false, false, true , true , false, false, false, false, false, true , false, false, false, true , false, false, false, true , false, true , false, true , false, false, false, false, false, false, true , true , false, false, false, false, false, false, false, false, false, false, false, false, false
|false, true , false, false, true , true , false, false, false, false, false, false, false, false, false, false, false, false, false, false, false, false, false, false, false, false, false, false, false, false, false, true , false, false, false, false, false, false, false, false, false, false, true , true , false, false, false, false, false, false, false, false, false, false, false, false, false, false, false, false, false, true , false, false, false, true , false, false, false, false, false, false, false, false, false, false, false, false, false, false, false, false, true , false, false, false, false, false, false, false, false, false, false, false, true , true , false, false, false, false, false, true , false, false, false, true , false, false, false, true , false, true , false, true , false, false, false, false, false, false, true , true , false, false, false, false, false, false, false, false, false, false, false, false, false
|false, true , false, false, true , true , false, false, false, false, false, false, false, false, false, false, false, false, false, false, false, false, false, false, false, false, false, false, false, false, false, true , false, false, false, false, false, false, false, false, false, false, true , true , false, false, false, false, false, false, false, false, false, false, false, false, false, false, false, false, false, true , false, false, false, true , false, false, false, false, false, false, false, false, false, false, false, false, false, false, false, false, true , false, false, false, false, false, false, false, false, false, false, false, true , true , false, false, false, false, false, true , false, false, false, true , false, false, false, true , false, true , false, true , false, false, false, false, false, false, true , true , false, false, false, false, false, false, false, false, false, false, false, false, false
|false, false, false, false, false, false, false, false, false, false, false, false, false, false, false, false, false, false, false, false, false, false, false, false, false, false, false, false, false, false, false, false, false, false, false, false, false, false, false, false, false, false, false, false, false, false, false, false, false, false, false, false, false, false, false, false, false, false, false, false, false, false, false, false, false, false, false, false, false, false, false, false, false, false, false, false, false, false, false, false, false, false, false, false, false, false, false, false, false, false, false, false, false, false, false, false, false, false, false, false, false, false, false, false, false, false, false, false, false, false, false, false, false, false, false, false, false, false, false, false, false, false, false, false, false, false, false, false, false, false, false, false, false, false, false
|true , false, false, false, false, false, false, false, false, false, false, false, false, false, false, false, false, false, false, false, true , false, true , false, false, false, true , false, true , true , false, false, false, true , false, false, false, false, false, false, true , false, false, false, true , false, false, false, false, false, false, false, false, false, false, true , false, false, false, false, true , false, false, false, true , false, false, false, false, true , false, false, false, false, false, false, false, false, false, false, false, false, false, false, false, true , false, false, false, false, false, false, false, false, false, false, false, true , false, false, false, false, false, false, false, false, false, false, false, false, false, false, false, false, false, false, false, false, false, false, false, false, false, false, false, false, false, false, false, false, false, false, false, false, false
|true , false, false, false, false, false, false, false, false, false, false, false, false, false, false, false, false, false, false, false, true , false, true , false, false, false, true , false, true , true , false, false, false, true , false, false, false, false, false, false, true , false, false, false, true , false, false, false, false, false, false, false, false, false, false, true , false, false, false, false, true , false, false, false, true , false, false, false, false, true , false, false, false, false, false, false, false, false, false, false, false, false, false, false, false, true , false, false, false, false, false, false, false, false, false, false, false, true , false, false, false, false, false, false, false, false, false, false, false, false, false, false, false, false, false, false, false, false, false, false, false, false, false, false, false, false, false, false, false, false, false, false, false, false, false
|true , false, false, false, false, false, false, false, false, false, false, false, false, false, false, false, false, false, false, false, true , false, true , false, false, false, true , false, true , true , false, false, false, true , false, false, false, false, false, false, true , false, true , false, true , false, false, false, false, false, false, false, false, false, false, true , false, false, false, false, true , false, false, false, true , false, false, false, false, true , true , false, false, false, false, false, false, false, false, false, false, false, false, false, false, true , false, false, false, false, false, false, false, false, false, false, false, true , false, false, false, false, false, false, false, false, false, false, false, false, false, false, false, false, false, false, false, false, false, false, false, false, false, false, false, false, false, false, false, false, false, false, false, false, false
|true , false, false, false, false, false, false, false, false, false, false, false, false, false, false, false, false, false, false, false, true , false, true , false, false, false, true , false, false, false, false, false, true , false, false, false, false, false, true , false, true , false, true , false, false, false, false, false, false, false, false, false, false, false, false, true , true , false, true , false, true , false, true , false, false, false, false, false, false, true , true , false, false, false, false, false, false, false, false, false, true , false, false, false, false, false, false, false, false, false, false, false, false, false, false, false, true , false, false, false, false, false, false, false, false, false, false, false, false, false, false, false, false, false, false, false, false, false, false, false, false, false, false, false, false, false, false, false, false, false, false, false, false, true , false
|true , false, false, false, false, false, false, false, false, false, false, false, false, false, false, false, false, false, false, false, true , false, true , false, false, false, true , false, false, false, false, false, true , false, false, false, false, false, true , false, true , false, true , false, false, false, false, false, false, false, false, false, false, false, false, true , true , false, true , false, true , false, true , false, false, false, false, false, false, true , true , false, false, false, false, false, false, false, false, false, true , false, false, false, false, false, false, false, false, false, false, false, false, false, false, false, true , false, false, false, false, false, false, false, false, false, false, false, false, false, false, false, false, false, false, false, false, false, false, false, false, false, false, false, false, false, false, false, false, false, false, false, false, true , false
|false, false, false, false, false, false, false, false, false, false, false, false, false, false, false, false, false, false, false, false, true , false, true , false, false, false, true , false, false, false, false, false, true , false, false, false, false, false, true , false, false, false, false, false, false, false, false, false, false, false, false, false, false, false, false, true , true , false, true , false, true , false, true , false, false, false, false, false, false, false, false, false, false, false, false, false, false, false, false, false, true , false, false, false, false, false, false, false, false, false, false, false, false, false, false, false, true , false, false, false, false, false, false, false, false, false, false, false, false, false, false, false, false, false, false, false, false, false, false, false, false, false, false, false, false, false, false, false, false, false, false, false, false, true , false
|false, false, false, false, false, false, false, false, false, false, false, false, false, false, false, false, false, false, false, false, false, false, false, false, false, false, false, false, false, false, false, false, false, false, false, false, false, false, false, false, false, false, true , false, false, false, false, false, false, false, false, false, false, false, false, false, false, false, false, false, false, false, false, true , false, false, false, false, false, true , false, false, false, false, false, false, false, false, false, false, false, false, false, false, false, false, false, false, false, false, false, false, false, false, false, false, false, false, false, false, false, false, false, false, false, false, false, false, false, false, false, false, false, false, false, false, false, false, false, false, false, false, false, false, false, false, false, false, false, false, false, false, false, false, false
|false, false, false, false, false, false, false, false, false, false, false, false, false, false, false, false, false, false, false, false, false, false, false, false, false, false, false, false, false, false, false, false, false, false, false, false, true , false, false, false, false, false, true , false, true , false, false, false, false, false, false, false, false, false, false, false, false, false, false, false, false, false, false, true , false, false, false, false, false, true , false, false, false, false, false, false, false, false, false, false, false, false, false, false, false, false, false, false, false, false, false, false, false, false, false, false, true , false, false, false, false, false, false, false, false, false, false, false, false, false, false, false, false, false, false, false, false, false, false, false, false, false, false, false, false, false, false, false, false, false, false, false, false, true , false
|false, false, false, false, false, false, false, false, false, false, false, true , false, false, true , false, false, false, false, false, false, false, false, false, false, true , false, false, false, false, false, false, false, false, false, false, true , false, false, false, false, false, true , false, true , false, false, false, false, false, false, false, false, false, false, false, false, false, false, true , true , false, true , true , false, false, false, false, false, true , false, false, false, false, false, false, false, true , false, false, false, false, false, false, false, false, false, false, false, false, false, false, false, false, false, false, true , false, false, false, true , false, false, false, false, false, false, false, false, false, false, false, false, false, false, false, true , true , false, false, false, false, false, false, false, false, false, false, false, false, false, false, false, true , false
|false, false, false, false, false, false, false, false, false, false, false, true , false, false, true , false, false, false, false, false, false, false, false, false, false, true , false, false, false, false, false, false, false, false, false, false, true , false, false, false, false, false, true , false, true , false, false, false, false, false, false, false, false, false, false, false, false, false, false, true , true , false, true , true , false, false, false, false, false, true , false, false, false, false, false, false, false, true , false, false, false, false, false, false, false, false, false, false, false, false, false, false, false, false, false, false, true , false, false, false, true , false, false, false, false, false, false, false, false, false, false, false, false, false, false, false, true , true , false, false, false, false, false, false, false, false, false, false, false, false, false, false, false, true , false
|false, false, false, false, false, false, false, false, false, false, false, true , false, false, true , false, false, false, false, false, false, false, false, false, false, true , false, false, false, false, false, false, false, false, false, false, false, false, false, false, false, false, true , false, false, false, false, false, false, false, false, false, false, false, false, false, false, false, false, true , true , false, true , true , false, false, false, false, false, true , false, false, false, false, false, false, false, true , false, false, false, false, false, false, false, false, false, false, false, false, false, false, false, false, false, false, false, false, false, false, true , false, false, false, false, false, false, false, false, false, false, false, false, false, false, false, true , true , false, false, false, false, false, false, false, false, false, false, false, false, false, false, false, false, false
|false, false, false, true , true , false, false, false, false, false, false, false, false, false, false, false, false, false, false, false, false, false, false, false, false, false, false, false, false, false, false, true , false, false, false, false, false, false, false, false, false, false, true , false, false, false, false, false, false, false, false, false, false, false, false, false, false, false, false, false, false, true , false, false, false, true , false, false, false, false, false, false, false, false, false, false, false, false, false, true , false, false, false, false, false, true , false, false, false, true , false, false, true , false, false, false, false, false, true , false, true , true , false, false, false, true , false, false, false, true , false, false, false, false, false, false, true , false, false, false, true , false, true , false, false, false, true , false, false, false, false, false, false, false, false
|false, false, false, true , true , false, false, false, false, false, false, false, false, false, false, false, false, false, false, false, false, false, false, false, false, false, false, false, false, false, false, true , false, false, false, false, false, false, false, false, false, false, true , false, false, false, false, false, false, false, false, false, false, false, false, false, false, false, false, false, false, true , false, false, false, true , false, false, false, false, false, false, false, false, false, false, false, false, false, true , false, false, false, false, false, true , false, false, false, true , false, false, true , false, false, false, false, false, true , false, true , true , false, false, false, true , false, false, false, true , false, false, false, false, false, false, true , false, false, false, true , false, true , false, false, false, true , false, false, false, false, false, false, false, false
|false, false, false, true , true , false, false, false, false, false, false, false, false, false, false, false, false, false, false, false, false, false, false, false, false, false, false, false, false, false, false, true , false, false, false, false, false, false, false, false, false, false, true , false, false, false, false, false, false, false, false, false, false, false, false, false, false, false, false, false, false, true , false, false, false, true , false, false, false, false, false, false, false, false, false, false, false, false, false, true , false, false, false, false, false, true , false, false, false, true , false, false, true , false, false, false, false, false, true , false, true , true , false, false, false, true , false, false, false, true , false, false, false, false, false, false, true , false, false, false, true , false, true , false, false, false, true , false, false, false, false, false, false, false, false
|false, false, false, true , true , false, false, false, false, false, false, false, false, false, false, false, false, false, false, false, false, false, false, false, false, false, false, false, false, false, false, true , false, false, false, false, false, false, false, false, false, false, true , false, false, false, false, false, false, false, false, false, false, false, false, false, false, false, false, false, false, true , false, false, false, true , false, false, false, false, false, false, false, false, false, false, false, false, false, true , false, false, false, false, false, true , false, false, false, true , false, false, true , false, false, false, false, false, true , false, true , true , false, false, false, true , false, false, false, true , false, false, false, false, false, false, true , false, false, false, true , false, true , false, false, false, true , false, false, false, false, false, false, false, false
|false, false, false, false, false, false, false, false, false, false, false, false, false, false, false, false, false, false, false, false, false, false, false, false, false, false, false, false, false, false, false, false, false, false, false, false, false, false, false, false, false, false, false, false, false, false, false, false, false, false, false, false, false, false, false, false, false, false, false, false, false, false, false, false, false, false, false, false, false, false, false, false, false, false, false, false, false, false, false, false, false, false, false, false, false, false, false, false, false, false, false, false, false, false, false, false, false, false, false, false, false, false, false, false, false, false, false, false, false, false, false, false, false, false, false, true , false, false, false, false, false, false, false, false, false, false, false, false, false, false, false, false, false, false, false
|false, false, false, false, false, false, false, false, false, false, false, true , false, false, false, false, false, true , false, false, false, false, false, true , false, false, false, false, false, false, false, false, false, false, false, true , false, false, false, false, false, false, false, true , false, false, false, false, false, false, false, true , false, false, false, false, false, false, false, true , false, false, false, false, true , false, false, false, false, false, false, false, false, false, true , true , false, false, false, false, true , false, false, false, false, false, false, true , false, false, false, false, false, false, false, false, false, false, false, true , false, false, false, false, false, false, false, false, false, false, false, false, false, false, false, true , false, false, false, false, true , false, false, false, false, false, false, false, false, false, false, true , false, false, false
|false, false, false, false, false, false, false, false, false, false, false, true , false, false, false, false, false, true , false, false, false, false, false, true , false, false, false, false, false, false, false, false, false, false, false, true , false, false, false, false, false, false, false, true , false, false, false, false, false, false, false, true , false, false, false, false, false, false, false, true , false, false, false, false, true , false, false, false, false, false, false, false, false, false, true , true , false, false, false, false, true , false, false, false, false, false, false, true , false, false, false, false, false, false, false, false, false, false, false, true , false, false, false, false, false, false, false, false, false, false, false, false, false, false, false, false, false, false, false, false, true , false, false, false, false, false, false, false, false, false, false, true , false, false, false
|false, false, false, false, false, false, false, false, false, false, false, true , false, false, false, false, false, true , false, false, false, false, false, true , false, false, false, false, false, false, false, false, false, false, false, true , false, false, false, false, false, false, false, true , false, false, false, false, false, false, false, true , false, false, false, false, false, false, false, true , false, false, false, false, true , false, false, false, false, false, false, false, false, false, true , true , false, false, false, false, true , false, false, false, false, false, false, true , false, false, false, false, false, false, false, false, false, false, false, true , false, false, false, false, false, false, false, false, false, false, false, false, false, false, false, false, false, false, false, false, true , false, false, false, false, false, false, false, false, false, false, true , false, false, false
|false, false, false, false, false, false, false, false, false, false, false, true , false, false, false, false, false, true , false, false, false, false, false, false, false, false, false, false, false, false, false, false, false, false, false, true , false, false, false, false, false, false, false, true , false, false, false, false, false, false, false, true , false, false, false, false, false, false, false, true , false, false, false, false, false, false, false, false, false, false, false, false, false, false, true , true , false, false, false, false, false, false, false, false, false, false, false, true , false, false, false, false, false, false, false, false, false, false, false, false, false, false, false, false, false, false, false, true , false, false, false, false, false, false, false, false, false, false, false, false, true , false, false, false, false, false, false, false, false, false, false, false, false, false, false
|false, false, false, false, false, false, false, false, false, false, false, true , false, false, false, false, false, true , false, false, false, false, false, false, false, false, false, false, false, false, false, false, false, false, false, true , false, false, false, false, false, false, false, true , false, false, false, false, false, false, false, true , false, false, false, false, false, false, false, true , false, false, false, false, false, false, false, false, false, false, false, false, false, false, true , true , false, false, false, false, false, false, false, false, false, false, false, true , false, false, false, false, false, false, false, false, false, false, false, false, false, false, false, false, false, false, false, true , false, false, false, false, false, false, false, false, false, false, false, false, true , false, false, false, false, false, false, false, false, false, false, false, false, false, false
|false, false, false, false, false, false, false, false, false, false, false, true , false, false, false, false, false, true , false, false, false, false, false, false, false, false, false, false, false, false, false, false, false, false, false, false, false, false, false, false, false, false, false, true , false, false, false, false, false, false, false, true , false, false, false, false, false, false, false, true , false, false, false, false, false, false, false, false, false, false, false, false, false, false, true , true , false, false, false, false, false, false, false, false, false, false, false, false, false, false, false, false, false, false, false, false, false, false, false, false, false, false, false, false, false, false, false, true , false, false, false, false, false, false, false, false, false, false, false, false, true , false, false, false, false, false, false, false, false, false, false, false, false, false, false
|false, false, false, false, false, false, false, false, false, false, false, false, false, false, false, false, false, false, false, false, false, false, false, false, false, false, false, false, false, false, false, false, false, false, false, true , false, false, false, false, false, false, false, false, false, false, false, false, false, false, false, true , false, false, false, false, false, false, false, false, false, false, false, false, false, false, false, false, false, false, false, false, false, false, true , false, false, false, false, false, false, false, false, false, false, false, false, false, false, false, false, false, false, false, false, false, false, false, false, false, false, false, false, false, false, false, false, false, false, false, false, false, false, false, false, false, false, false, false, false, false, false, false, false, false, false, false, false, false, false, false, false, false, false, false
|false, false, false, true , false, false, false, false, false, false, false, false, false, false, false, false, false, false, false, false, false, false, false, false, false, false, false, false, false, false, false, true , false, false, false, true , false, false, false, false, false, false, false, false, false, false, false, false, false, false, false, true , false, false, false, false, false, false, false, false, false, false, false, false, false, false, false, false, false, false, false, false, false, false, true , false, false, false, false, false, false, false, false, false, true , false, false, false, true , false, false, false, false, false, false, false, false, false, true , true , false, false, false, false, false, false, false, false, false, false, false, false, false, false, true , true , false, false, false, false, true , false, false, false, false, false, false, false, false, false, false, false, false, false, false
|true , false, false, true , false, false, false, false, false, false, false, false, false, false, false, false, false, false, false, false, false, false, false, true , false, false, false, false, false, false, false, true , false, false, false, true , false, false, false, false, false, false, false, false, false, false, false, false, false, false, false, true , false, false, false, false, false, false, false, false, false, false, false, false, false, false, false, false, false, false, false, false, false, false, true , false, false, false, true , false, false, false, false, false, true , false, false, false, true , false, false, true , false, false, false, false, false, true , true , true , false, false, false, false, false, false, false, false, false, false, false, false, false, false, true , true , false, false, false, false, true , false, false, false, false, false, false, false, false, false, false, false, false, false, false
|true , false, false, true , false, false, false, false, false, false, false, false, false, false, false, false, false, false, false, false, false, false, false, true , false, false, false, false, false, false, false, true , false, false, false, false, false, false, false, false, false, false, false, false, false, false, false, false, false, false, false, false, false, false, false, false, false, false, false, false, false, false, false, false, false, false, false, false, false, false, false, false, false, false, true , false, false, false, true , false, false, false, false, false, true , false, false, false, true , false, false, true , false, false, false, false, false, true , true , true , false, false, false, false, false, false, false, false, false, false, false, false, false, false, true , true , false, false, false, false, true , false, false, false, false, false, false, false, false, false, false, false, false, false, false
|true , false, false, false, false, false, false, false, false, false, false, false, false, false, false, false, false, false, false, false, false, false, false, true , false, false, false, false, false, false, false, true , false, false, false, false, false, false, false, false, false, false, false, false, false, false, false, false, false, false, false, false, false, false, false, false, false, false, false, false, false, false, false, false, false, false, false, false, false, false, false, false, false, false, false, false, false, false, true , false, false, false, false, false, false, false, false, false, true , false, false, true , false, false, false, false, false, true , false, true , false, false, false, false, false, false, false, false, false, false, false, false, false, false, true , true , false, false, false, false, true , false, false, false, false, false, false, false, false, false, false, false, false, false, false
|true , false, false, false, false, false, false, false, false, false, false, false, false, false, false, false, false, false, false, false, false, false, false, true , false, false, false, false, false, false, false, true , false, false, false, false, false, false, false, false, false, false, false, false, false, false, false, false, false, false, false, false, false, false, false, false, false, false, false, false, false, false, false, true , false, false, false, false, false, false, false, false, false, false, false, false, false, false, false, true , false, false, false, false, false, false, false, false, true , false, false, true , false, false, false, false, false, true , false, false, false, true , false, false, false, false, false, false, false, false, false, false, false, false, true , true , false, false, false, false, false, false, false, false, false, false, false, false, false, false, false, false, false, false, false
|true , false, false, false, false, false, false, false, false, false, false, false, false, false, false, false, false, false, false, false, false, false, false, true , false, false, false, false, false, false, false, true , false, false, false, false, false, false, false, false, false, false, false, false, false, false, false, false, false, false, false, false, false, false, false, false, false, false, false, false, false, false, false, true , false, false, false, false, false, false, false, false, false, false, false, false, false, false, false, true , false, false, false, false, false, false, false, false, true , false, false, true , false, false, false, false, false, true , false, false, false, true , false, false, false, false, false, false, false, false, false, false, false, false, true , true , false, false, false, false, false, false, false, false, false, false, false, false, false, false, false, false, false, false, false
|true , false, false, false, false, false, false, false, false, false, false, false, false, false, false, false, false, false, false, false, false, false, false, true , false, false, false, false, false, false, false, true , false, false, false, false, false, false, false, false, false, false, false, false, false, false, false, false, false, false, false, false, false, false, false, false, false, false, false, false, false, false, false, true , false, false, false, false, false, false, false, false, false, false, false, false, false, false, false, true , false, false, false, false, false, false, false, false, true , false, false, true , false, false, false, false, false, true , false, false, false, true , false, false, false, false, false, false, false, false, false, false, false, false, true , true , false, false, false, false, false, false, false, false, false, false, false, false, false, false, false, false, false, false, false
|true , false, false, false, false, false, false, false, false, false, false, false, false, false, false, false, false, false, false, false, false, false, false, true , false, false, false, false, false, false, false, true , false, false, false, false, false, false, false, false, false, false, false, false, false, false, false, false, false, false, false, false, false, false, false, false, false, false, false, false, false, false, false, true , false, false, false, false, false, false, false, false, false, false, false, false, false, false, false, true , false, false, false, false, false, false, false, false, true , false, false, true , false, false, false, false, false, true , false, false, false, true , false, false, false, false, false, false, false, false, false, false, false, false, true , true , false, false, false, false, false, false, false, false, false, false, false, false, false, false, false, false, false, false, false
|];
