% Real instance from AcademiAPP, period 6 (Agosto 2024 - Diciembre 2024).
% Generated by scripts/academiapp/make_instances.py from the CSV
% snapshot. Enrollment caps: room-proxy (the API does not
% publish them); subject resource requirements are inferred from the
% room the campus used. Both are approximations, not campus data.
% Availability repair: none. The schedule the campus ran
% violates the model's hard constraints (teacher clashes 4, rooms double-booked 28, same-cohort overlaps 32, hours taught outside the
% declared availability 7), so
% this instance can be unsatisfiable for reasons present in the data.

Recursos=[Coliseo, LabAlimentos, LabElectronica, LabFisica, Ninguno, PlantaAlimentos, SalaSistemas];
sede=30;
salones=30;
Sc=[25,36,36,42,42,44,37,38,25,53,58,54,55,62,30,40,47,46,39,28,30,30,60,25,25,25,60,30,54,62];
Sr=[PlantaAlimentos, Ninguno, Ninguno, Ninguno, Ninguno, Ninguno, Ninguno, Ninguno, Ninguno, Ninguno, Ninguno, Ninguno, Ninguno, Ninguno, Ninguno, Ninguno, Ninguno, Ninguno, Ninguno, SalaSistemas, SalaSistemas, SalaSistemas, Coliseo, LabAlimentos, LabElectronica, LabFisica, Ninguno, Ninguno, SalaSistemas, SalaSistemas];
N=96;
ini=1;
fin=339;
Asig=339;
Ar=[Ninguno,SalaSistemas,SalaSistemas,Ninguno,Ninguno,SalaSistemas,Ninguno,Ninguno,Ninguno,Ninguno,SalaSistemas,SalaSistemas,Ninguno,SalaSistemas,SalaSistemas,SalaSistemas,Ninguno,Ninguno,Ninguno,Ninguno,Ninguno,Ninguno,LabAlimentos,LabAlimentos,Ninguno,Ninguno,Ninguno,Coliseo,Ninguno,Ninguno,LabElectronica,SalaSistemas,SalaSistemas,Ninguno,Ninguno,Ninguno,SalaSistemas,Ninguno,Ninguno,Ninguno,Ninguno,Ninguno,SalaSistemas,SalaSistemas,Ninguno,Ninguno,Ninguno,LabElectronica,LabElectronica,Ninguno,Ninguno,Ninguno,Ninguno,Ninguno,Ninguno,Ninguno,Ninguno,Ninguno,Ninguno,Ninguno,Ninguno,Ninguno,Ninguno,Ninguno,Ninguno,Ninguno,Ninguno,Ninguno,Ninguno,Ninguno,Ninguno,Ninguno,Ninguno,Ninguno,Ninguno,Coliseo,Ninguno,Ninguno,Ninguno,SalaSistemas,SalaSistemas,Ninguno,Ninguno,Ninguno,Ninguno,Ninguno,Ninguno,Ninguno,Ninguno,Ninguno,Ninguno,SalaSistemas,Ninguno,Ninguno,Ninguno,SalaSistemas,SalaSistemas,SalaSistemas,SalaSistemas,Ninguno,SalaSistemas,SalaSistemas,SalaSistemas,SalaSistemas,Ninguno,Ninguno,Ninguno,Ninguno,LabElectronica,Ninguno,LabAlimentos,Ninguno,Ninguno,LabAlimentos,LabAlimentos,Ninguno,Ninguno,Ninguno,Ninguno,Ninguno,Ninguno,Ninguno,LabAlimentos,LabAlimentos,Ninguno,Ninguno,Coliseo,Ninguno,SalaSistemas,Ninguno,SalaSistemas,Ninguno,PlantaAlimentos,Ninguno,SalaSistemas,SalaSistemas,Ninguno,LabAlimentos,LabAlimentos,SalaSistemas,SalaSistemas,Ninguno,Ninguno,SalaSistemas,Ninguno,SalaSistemas,Ninguno,Ninguno,Ninguno,Ninguno,SalaSistemas,Ninguno,Ninguno,Ninguno,SalaSistemas,Ninguno,Ninguno,SalaSistemas,Ninguno,Ninguno,Ninguno,Ninguno,Ninguno,Ninguno,Ninguno,Ninguno,Ninguno,Ninguno,Ninguno,Ninguno,SalaSistemas,SalaSistemas,Ninguno,Ninguno,Ninguno,Ninguno,Ninguno,Ninguno,SalaSistemas,Ninguno,Ninguno,Ninguno,Ninguno,SalaSistemas,Ninguno,Ninguno,Ninguno,SalaSistemas,Ninguno,Ninguno,Ninguno,Ninguno,Ninguno,Ninguno,SalaSistemas,Ninguno,Ninguno,Ninguno,Ninguno,Ninguno,Ninguno,Ninguno,Ninguno,Ninguno,SalaSistemas,SalaSistemas,SalaSistemas,SalaSistemas,Ninguno,Ninguno,Ninguno,Ninguno,Ninguno,SalaSistemas,Ninguno,Ninguno,Ninguno,Ninguno,SalaSistemas,Ninguno,Ninguno,Ninguno,Ninguno,SalaSistemas,Ninguno,Ninguno,SalaSistemas,SalaSistemas,Ninguno,SalaSistemas,Ninguno,Ninguno,Ninguno,Ninguno,Ninguno,Ninguno,Ninguno,SalaSistemas,Ninguno,SalaSistemas,Ninguno,SalaSistemas,SalaSistemas,SalaSistemas,SalaSistemas,SalaSistemas,SalaSistemas,SalaSistemas,SalaSistemas,SalaSistemas,SalaSistemas,SalaSistemas,SalaSistemas,SalaSistemas,SalaSistemas,SalaSistemas,Ninguno,SalaSistemas,SalaSistemas,SalaSistemas,Ninguno,Ninguno,Ninguno,Ninguno,Ninguno,SalaSistemas,Ninguno,SalaSistemas,SalaSistemas,Ninguno,Ninguno,Ninguno,Ninguno,Ninguno,Ninguno,SalaSistemas,Ninguno,Ninguno,Ninguno,Ninguno,Ninguno,Ninguno,Ninguno,Ninguno,SalaSistemas,Ninguno,Ninguno,SalaSistemas,Ninguno,Ninguno,Ninguno,Ninguno,SalaSistemas,LabElectronica,Ninguno,Ninguno,Ninguno,SalaSistemas,Ninguno,Ninguno,Ninguno,Ninguno,Ninguno,Ninguno,Ninguno,Ninguno,Ninguno,Ninguno,Coliseo,Ninguno,Ninguno,Ninguno,Ninguno,Ninguno,Ninguno,Ninguno,Ninguno,Ninguno,Ninguno,Ninguno,Ninguno,Ninguno,SalaSistemas,Ninguno,Ninguno,Ninguno,Ninguno,Ninguno,Ninguno,Ninguno,Ninguno,Ninguno,Ninguno,Ninguno,Ninguno,Ninguno,Ninguno,SalaSistemas,Ninguno];
Ae=[46,30,62,42,30,54,25,30,30,55,30,30,60,30,30,30,30,42,54,40,62,54,25,25,30,42,54,60,54,38,25,30,30,58,54,36,28,36,36,36,36,46,28,62,36,36,46,25,25,38,38,53,58,37,38,25,42,46,42,42,42,46,36,36,46,36,44,53,53,37,42,53,42,58,46,60,47,47,47,28,28,53,58,44,47,47,47,40,38,36,46,30,40,58,53,30,30,54,30,54,30,54,30,54,38,62,46,44,25,58,25,42,53,25,25,55,60,55,36,55,42,60,25,25,44,30,60,42,62,36,28,58,25,42,30,54,46,25,25,30,30,44,60,62,42,28,42,42,42,42,54,40,37,60,28,44,42,28,58,42,53,44,54,62,36,55,42,60,58,30,28,30,36,60,55,60,30,36,28,30,36,62,62,30,62,58,46,54,38,58,42,36,55,62,30,55,55,55,55,44,44,55,42,30,30,30,30,30,58,40,30,37,36,54,62,42,44,55,54,55,58,37,60,62,62,37,62,62,53,54,60,55,53,37,47,62,53,62,42,62,62,28,62,30,30,30,30,62,62,62,30,30,30,30,62,54,53,30,30,62,62,55,54,54,54,28,53,30,28,30,36,37,53,36,44,62,36,54,53,53,53,53,62,37,54,37,38,30,36,38,54,62,54,25,40,38,36,30,38,44,30,47,47,25,47,47,47,25,60,54,58,58,54,55,62,40,58,53,40,40,36,40,54,36,62,47,55,60,38,55,42,42,36,60,36,62,36,54,36];
