% Real instance from AcademiAPP, period 7 (Febrero 2025 - Junio 2025).
% Generated by scripts/academiapp/make_instances.py from the CSV
% snapshot. Enrollment caps: room-proxy (the API does not
% publish them); subject resource requirements are inferred from the
% room the campus used. Both are approximations, not campus data.
% Availability repair: none. The schedule the campus ran
% violates the model's hard constraints (teacher clashes 17, rooms double-booked 43, same-cohort overlaps 38, hours taught outside the
% declared availability 36), so
% this instance can be unsatisfiable for reasons present in the data.

diurno = {1, 2, 3, 4, 5, 6, 7, 8, 9, 10, 11, 12, 17, 18, 19, 20, 21, 22, 23, 24, 25, 26, 27, 28, 33, 34, 35, 36, 37, 38, 39, 40, 41, 42, 43, 44, 49, 50, 51, 52, 53, 54, 55, 56, 57, 58, 59, 60, 65, 66, 67, 68, 69, 70, 71, 72, 73, 74, 75, 76, 81, 82, 83, 84, 85, 86, 87, 88, 89, 90, 91, 92};
nocturno = {13, 14, 15, 16, 29, 30, 31, 32, 45, 46, 47, 48, 61, 62, 63, 64, 77, 78, 79, 80, 93, 94, 95, 96};
H = 96;
asignaturas = 345;
docentes = 142;

A=[|1, 6, 1008, 50, 0, 4
|1, 6, 1009, 50, 0, 3
|1, 6, 1010, 50, 0, 4
|1, 6, 1011, 50, 0, 3
|1, 6, 1012, 50, 0, 3
|1, 8, 1013, 50, 0, 3
|1, 8, 1014, 50, 0, 3
|1, 10, 1015, 50, 0, 3
|1, 3, 1016, 50, 0, 3
|3, 6, 1019, 53, 0, 4
|12, 1, 1027, 51, 1, 4
|5, 1, 1030, 50, 0, 2
|12, 3, 1031, 51, 1, 4
|12, 3, 1032, 50, 1, 6
|12, 3, 1033, 52, 1, 4
|12, 3, 1034, 51, 1, 4
|12, 3, 1035, 50, 1, 4
|8, 5, 1036, 51, 0, 3
|8, 5, 1037, 50, 0, 3
|8, 6, 1038, 52, 1, 4
|8, 6, 1039, 52, 1, 4
|8, 6, 1040, 50, 1, 4
|8, 6, 1041, 51, 1, 4
|4, 6, 1042, 50, 0, 4
|4, 6, 1042, 51, 0, 4
|4, 6, 1043, 50, 0, 3
|4, 6, 1044, 50, 0, 3
|4, 6, 1045, 50, 0, 4
|4, 6, 1045, 51, 0, 4
|4, 6, 1046, 50, 0, 3
|4, 6, 1047, 50, 0, 3
|4, 6, 1048, 53, 0, 4
|11, 4, 1049, 55, 0, 4
|11, 4, 1050, 51, 0, 3
|11, 4, 1051, 50, 0, 4
|11, 4, 1052, 50, 0, 3
|11, 4, 1053, 50, 0, 3
|11, 4, 1054, 50, 0, 3
|5, 9, 1056, 50, 0, 3
|5, 9, 1057, 50, 0, 3
|5, 3, 1058, 50, 0, 3
|1, 7, 1059, 51, 0, 3
|1, 7, 1060, 50, 0, 3
|1, 7, 1060, 51, 0, 3
|1, 7, 1061, 50, 0, 3
|1, 7, 1061, 51, 0, 3
|1, 7, 1062, 50, 0, 3
|1, 7, 1062, 51, 0, 3
|1, 7, 1063, 50, 0, 3
|1, 7, 1063, 51, 0, 3
|3, 8, 1064, 50, 0, 6
|3, 8, 1064, 51, 0, 6
|3, 8, 1065, 50, 0, 5
|3, 8, 1066, 50, 0, 4
|3, 8, 1067, 50, 0, 4
|3, 8, 1068, 50, 0, 3
|3, 8, 1069, 50, 0, 3
|3, 8, 1069, 51, 0, 3
|3, 8, 1070, 50, 0, 3
|6, 4, 1071, 50, 1, 4
|6, 6, 1072, 50, 1, 4
|6, 6, 1073, 51, 1, 4
|6, 6, 1074, 50, 1, 4
|6, 6, 1075, 50, 1, 4
|6, 6, 1076, 50, 1, 4
|6, 6, 1077, 50, 0, 3
|6, 6, 1078, 50, 0, 3
|6, 7, 1080, 50, 0, 3
|6, 7, 1081, 50, 0, 3
|6, 7, 1082, 50, 0, 3
|6, 7, 1083, 50, 0, 3
|6, 7, 1084, 50, 0, 3
|6, 7, 1085, 50, 0, 3
|2, 2, 1086, 50, 1, 4
|2, 6, 1087, 50, 0, 3
|2, 6, 1088, 50, 1, 4
|2, 6, 1089, 51, 1, 4
|2, 6, 1090, 50, 1, 4
|2, 6, 1091, 52, 1, 4
|2, 6, 1092, 50, 1, 4
|2, 7, 1093, 50, 0, 3
|2, 7, 1094, 50, 0, 3
|2, 7, 1095, 50, 0, 3
|2, 7, 1096, 50, 0, 3
|2, 7, 1097, 50, 0, 3
|2, 7, 1098, 50, 0, 3
|2, 9, 1099, 50, 0, 3
|2, 10, 1100, 50, 1, 4
|5, 8, 1101, 50, 0, 3
|5, 7, 1102, 50, 0, 3
|5, 7, 1103, 50, 0, 3
|1, 8, 133, 50, 0, 3
|1, 8, 134, 50, 0, 1
|1, 8, 134, 51, 0, 1
|1, 8, 136, 50, 0, 3
|1, 8, 137, 50, 0, 3
|1, 9, 138, 50, 0, 2
|1, 9, 139, 50, 0, 3
|1, 9, 146, 50, 0, 3
|2, 1, 176, 51, 0, 3
|2, 1, 177, 51, 0, 3
|2, 1, 179, 51, 0, 3
|2, 1, 180, 51, 0, 3
|2, 1, 181, 51, 0, 3
|2, 1, 182, 51, 0, 3
|2, 2, 183, 51, 1, 4
|2, 2, 184, 50, 1, 4
|2, 2, 185, 51, 1, 4
|2, 2, 186, 50, 1, 4
|2, 2, 188, 51, 0, 3
|2, 3, 190, 51, 0, 3
|2, 3, 191, 50, 0, 3
|2, 3, 192, 50, 0, 3
|2, 3, 194, 51, 0, 3
|2, 3, 195, 51, 0, 3
|2, 3, 196, 54, 0, 4
|1, 1, 2, 50, 0, 5
|2, 8, 223, 50, 1, 4
|2, 8, 224, 50, 1, 4
|2, 8, 225, 50, 1, 4
|2, 8, 226, 50, 0, 3
|2, 8, 227, 50, 1, 4
|2, 10, 228, 50, 1, 4
|2, 10, 231, 50, 1, 4
|5, 1, 236, 50, 0, 3
|5, 1, 236, 51, 0, 3
|5, 1, 239, 50, 0, 3
|5, 1, 240, 50, 0, 3
|5, 1, 243, 50, 0, 3
|5, 1, 245, 50, 0, 3
|5, 3, 247, 50, 0, 3
|5, 3, 249, 50, 0, 3
|5, 3, 250, 50, 0, 4
|5, 3, 250, 51, 0, 4
|5, 5, 254, 50, 0, 3
|5, 5, 256, 50, 0, 4
|5, 5, 258, 50, 0, 4
|5, 5, 258, 51, 0, 4
|5, 5, 260, 50, 0, 4
|5, 5, 262, 50, 0, 4
|5, 5, 264, 50, 0, 4
|3, 2, 290, 54, 0, 3
|3, 2, 291, 54, 0, 5
|3, 2, 293, 51, 0, 6
|3, 2, 295, 50, 0, 3
|3, 2, 295, 51, 0, 3
|3, 4, 313, 51, 0, 5
|4, 2, 317, 51, 0, 6
|4, 2, 317, 52, 0, 6
|4, 2, 318, 50, 0, 4
|4, 2, 319, 50, 0, 3
|4, 2, 320, 50, 0, 3
|4, 2, 321, 50, 0, 4
|4, 2, 321, 51, 0, 4
|4, 2, 322, 50, 0, 3
|6, 1, 382, 50, 0, 3
|6, 1, 383, 50, 0, 3
|6, 1, 384, 50, 0, 3
|6, 1, 385, 50, 0, 3
|6, 1, 387, 50, 0, 3
|6, 3, 389, 50, 0, 3
|6, 3, 390, 50, 0, 3
|6, 3, 391, 50, 0, 3
|6, 3, 392, 50, 0, 3
|6, 3, 393, 50, 0, 3
|6, 3, 394, 50, 0, 3
|6, 3, 395, 52, 0, 4
|6, 2, 410, 50, 1, 4
|6, 2, 411, 50, 1, 4
|6, 2, 412, 50, 1, 4
|6, 2, 414, 50, 1, 4
|6, 2, 415, 50, 1, 4
|6, 8, 423, 50, 1, 4
|6, 8, 428, 50, 1, 4
|6, 8, 429, 50, 0, 3
|6, 8, 430, 50, 1, 4
|6, 10, 431, 50, 1, 4
|6, 8, 432, 50, 1, 4
|6, 8, 433, 50, 1, 4
|6, 10, 434, 51, 1, 4
|6, 10, 435, 51, 0, 3
|6, 10, 435, 52, 0, 3
|6, 10, 437, 51, 1, 4
|6, 10, 438, 51, 1, 4
|6, 10, 439, 50, 1, 4
|8, 1, 459, 52, 0, 5
|8, 1, 460, 51, 0, 3
|8, 1, 460, 52, 0, 3
|8, 1, 461, 52, 0, 2
|8, 1, 462, 52, 0, 3
|8, 1, 462, 53, 0, 3
|8, 3, 463, 53, 0, 3
|8, 3, 464, 52, 0, 4
|8, 3, 465, 51, 0, 3
|8, 3, 466, 51, 0, 4
|8, 2, 467, 53, 1, 7
|8, 2, 470, 51, 1, 4
|8, 2, 471, 53, 0, 3
|1, 3, 483, 52, 0, 6
|1, 3, 483, 53, 0, 6
|1, 3, 483, 54, 0, 6
|4, 2, 484, 52, 0, 3
|8, 1, 485, 51, 0, 2
|5, 9, 509, 50, 0, 2
|5, 9, 510, 50, 0, 3
|5, 9, 514, 50, 0, 3
|1, 4, 539, 50, 0, 5
|1, 4, 541, 50, 0, 4
|1, 4, 557, 50, 0, 4
|1, 4, 558, 50, 0, 3
|1, 4, 559, 50, 0, 4
|1, 1, 63, 50, 0, 3
|1, 1, 64, 50, 0, 2
|1, 1, 66, 50, 0, 3
|1, 1, 66, 51, 0, 3
|1, 1, 67, 50, 0, 3
|1, 1, 67, 51, 0, 3
|1, 1, 69, 50, 0, 2
|1, 1, 70, 50, 0, 4
|1, 2, 72, 50, 0, 5
|1, 2, 72, 51, 0, 5
|1, 2, 73, 50, 0, 4
|1, 2, 74, 50, 0, 3
|1, 2, 74, 51, 0, 3
|1, 2, 76, 50, 0, 4
|1, 2, 78, 50, 0, 3
|1, 2, 786, 50, 0, 5
|1, 2, 786, 51, 0, 5
|1, 4, 787, 50, 0, 3
|1, 3, 80, 50, 0, 3
|1, 3, 80, 51, 0, 3
|1, 3, 80, 52, 0, 3
|2, 5, 804, 50, 0, 3
|2, 5, 805, 50, 0, 3
|2, 5, 806, 51, 0, 3
|2, 5, 807, 50, 0, 3
|2, 5, 808, 53, 0, 4
|2, 5, 809, 50, 0, 3
|1, 3, 81, 50, 0, 4
|1, 3, 81, 51, 0, 4
|2, 5, 810, 51, 0, 3
|2, 4, 812, 50, 1, 4
|2, 4, 813, 50, 1, 4
|2, 4, 814, 50, 1, 4
|2, 4, 815, 50, 0, 3
|2, 4, 816, 51, 1, 4
|2, 4, 817, 53, 0, 4
|2, 4, 818, 51, 1, 4
|1, 3, 82, 50, 0, 5
|1, 3, 82, 51, 0, 5
|2, 8, 823, 50, 1, 4
|6, 4, 826, 50, 1, 4
|6, 4, 827, 50, 0, 3
|6, 4, 828, 51, 1, 4
|6, 4, 829, 50, 1, 4
|1, 3, 83, 50, 0, 4
|1, 3, 83, 51, 0, 4
|6, 4, 830, 50, 1, 4
|6, 4, 832, 50, 0, 3
|8, 5, 837, 51, 0, 4
|8, 3, 838, 53, 0, 3
|8, 1, 839, 52, 0, 3
|1, 3, 84, 50, 0, 3
|8, 2, 840, 52, 1, 4
|8, 2, 840, 53, 0, 3
|8, 4, 841, 51, 1, 4
|8, 4, 842, 52, 1, 4
|8, 4, 843, 52, 1, 4
|8, 4, 844, 51, 1, 4
|8, 4, 845, 52, 1, 4
|5, 3, 848, 51, 0, 3
|5, 7, 849, 50, 0, 3
|5, 7, 850, 50, 0, 4
|5, 7, 853, 50, 0, 4
|5, 7, 854, 50, 0, 3
|12, 1, 855, 51, 1, 2
|12, 1, 857, 50, 1, 3
|12, 1, 858, 51, 1, 7
|12, 1, 859, 50, 0, 3
|4, 4, 861, 50, 0, 6
|4, 4, 861, 51, 0, 6
|4, 4, 862, 50, 0, 3
|4, 4, 863, 50, 0, 3
|4, 4, 864, 50, 0, 4
|4, 4, 865, 50, 0, 4
|4, 4, 865, 51, 0, 4
|4, 4, 867, 50, 0, 3
|11, 2, 869, 54, 0, 3
|11, 2, 870, 50, 0, 4
|11, 2, 871, 50, 0, 3
|11, 2, 872, 50, 0, 6
|11, 2, 873, 50, 0, 2
|11, 2, 874, 50, 0, 3
|1, 9, 876, 50, 0, 3
|1, 5, 878, 50, 0, 4
|1, 5, 879, 50, 0, 3
|1, 5, 881, 50, 0, 3
|1, 5, 882, 50, 0, 3
|1, 5, 883, 50, 0, 4
|3, 4, 884, 50, 0, 3
|3, 4, 886, 54, 0, 4
|3, 4, 887, 50, 0, 3
|3, 4, 888, 50, 0, 3
|3, 6, 889, 50, 1, 4
|3, 6, 891, 50, 0, 3
|3, 6, 891, 51, 0, 3
|3, 6, 892, 51, 0, 3
|3, 6, 893, 50, 0, 3
|3, 6, 894, 50, 0, 3
|3, 6, 895, 50, 0, 3
|6, 9, 897, 50, 0, 3
|6, 9, 898, 50, 0, 3
|6, 9, 899, 50, 0, 3
|6, 9, 900, 50, 0, 3
|6, 9, 901, 50, 0, 3
|6, 1, 902, 50, 0, 3
|6, 5, 903, 50, 0, 3
|6, 5, 904, 54, 0, 4
|6, 5, 905, 50, 0, 3
|6, 5, 906, 50, 0, 3
|6, 5, 907, 50, 0, 3
|6, 5, 908, 50, 0, 3
|6, 5, 909, 50, 0, 3
|5, 3, 911, 50, 0, 3
|5, 7, 913, 50, 0, 3
|8, 2, 914, 52, 1, 6
|3, 2, 915, 53, 0, 3
|3, 2, 916, 53, 0, 5
|3, 4, 917, 50, 0, 3
|3, 4, 917, 51, 0, 3
|3, 4, 918, 50, 0, 3
|2, 2, 921, 55, 0, 3
|1, 2, 923, 50, 0, 3
|6, 2, 925, 52, 0, 3
|8, 5, 931, 51, 0, 3
|2, 3, 933, 50, 0, 3
|1, 5, 936, 50, 0, 4
|8, 6, 945, 53, 1, 4
|8, 5, 947, 52, 0, 3
|12, 1, 950, 51, 1, 4
|12, 2, 951, 52, 1, 6
|12, 2, 952, 50, 1, 4
|12, 2, 953, 50, 0, 3
|12, 2, 954, 50, 1, 4
|12, 2, 955, 51, 1, 4
|];
Da=[{1, 203},
{2, 4, 99, 210, 295},
{3, 230},
{5, 335},
{6, 188, 270},
{7},
{8, 47, 218},
{9, 199, 200, 201},
{10, 33, 257, 318},
{11, 262},
{12, 142, 198, 212},
{13, 209, 254, 301},
{14, 345},
{15, 103, 160, 338},
{16},
{17, 277},
{18, 22, 216, 223, 224, 265},
{19, 23},
{20, 298, 339},
{21, 95, 260},
{24, 26},
{25, 154},
{27, 28, 286},
{29, 30},
{31, 151},
{32, 267},
{34, 290, 316},
{35, 289},
{36},
{37, 292},
{38, 293},
{39, 89, 325},
{40, 91, 129, 132},
{41},
{42, 202, 331},
{43, 44},
{45, 46},
{48, 193, 197, 225, 239},
{49, 97, 187, 342},
{50, 92, 229, 294},
{51, 52, 291},
{53, 329, 330},
{54},
{55},
{56},
{57, 58, 300, 305, 306},
{59, 303},
{60, 74},
{61},
{62},
{63, 174, 313},
{64},
{65, 72, 179},
{66},
{67, 69, 176},
{68, 86, 169, 311},
{70, 181, 182},
{71, 75, 82, 166, 184, 253},
{73, 178},
{76, 124},
{77, 96},
{78, 251},
{79, 116, 141, 237, 247},
{80, 234},
{81, 226, 242, 271, 288},
{83, 88, 170, 314},
{84, 235, 258},
{85, 238},
{87, 118, 243},
{90, 205},
{93, 94},
{98, 297},
{100, 207, 344},
{101, 145, 146, 279},
{102, 233},
{104, 163},
{105, 172, 307},
{106, 147, 337},
{107, 123, 236},
{108, 162},
{109, 112, 312},
{110, 115, 127, 259},
{111, 211, 246, 255},
{113, 131, 140, 263, 272},
{114, 175, 245},
{117, 143},
{119},
{120},
{121, 319},
{122, 241, 321},
{125, 126},
{128},
{130, 327, 332, 333},
{133, 134},
{135, 274},
{136},
{137, 138, 204, 273},
{139},
{144},
{148, 281},
{149, 283, 285},
{150, 156, 168, 227, 228},
{152, 153, 284},
{155, 282},
{157, 180},
{158},
{159, 244},
{161},
{164, 248},
{165},
{167},
{171, 336},
{173, 320},
{177},
{183},
{185, 252},
{186, 196, 250, 326},
{189, 213, 276},
{190, 191, 217, 231, 264},
{192, 194, 232},
{195, 266, 296},
{206, 275},
{208, 299},
{214, 215},
{219, 222, 256, 261, 268},
{220, 221, 249},
{240, 269},
{278, 341, 343},
{280},
{287},
{302},
{304},
{308},
{309},
{310},
{315, 323},
{317},
{322},
{324},
{328},
{334},
{340}
];
Ad=[1, 2, 3, 2, 4, 5, 6, 7, 8, 9, 10, 11, 12, 13, 14, 15, 16, 17, 18, 19, 20, 17, 18, 21, 22, 21, 23, 23, 24, 24, 25, 26, 9, 27, 28, 29, 30, 31, 32, 33, 34, 35, 36, 36, 37, 37, 7, 38, 39, 40, 41, 41, 42, 43, 44, 45, 46, 46, 47, 48, 49, 50, 51, 52, 53, 54, 55, 56, 55, 57, 58, 53, 59, 48, 58, 60, 61, 62, 63, 64, 65, 58, 66, 67, 68, 56, 69, 66, 32, 70, 33, 40, 71, 71, 20, 61, 39, 72, 2, 73, 74, 75, 14, 76, 77, 78, 79, 80, 81, 82, 83, 81, 84, 85, 82, 63, 86, 69, 87, 88, 89, 90, 79, 60, 91, 91, 82, 92, 33, 93, 84, 33, 94, 94, 95, 96, 97, 97, 98, 84, 63, 11, 86, 99, 74, 74, 78, 100, 101, 102, 25, 103, 103, 22, 104, 102, 105, 106, 107, 14, 108, 80, 76, 109, 110, 58, 111, 102, 56, 66, 112, 77, 113, 51, 85, 55, 114, 59, 53, 105, 57, 57, 115, 58, 116, 117, 39, 5, 118, 119, 119, 120, 38, 120, 121, 117, 38, 11, 8, 8, 8, 35, 1, 97, 70, 122, 73, 123, 12, 2, 83, 11, 118, 124, 124, 17, 119, 7, 125, 126, 126, 125, 17, 17, 38, 65, 102, 102, 40, 3, 119, 120, 75, 64, 67, 79, 63, 68, 38, 127, 90, 65, 69, 107, 85, 83, 63, 109, 126, 117, 62, 116, 58, 12, 83, 125, 9, 67, 82, 20, 125, 10, 84, 119, 17, 121, 26, 125, 127, 5, 65, 84, 97, 95, 122, 118, 16, 128, 74, 129, 100, 104, 101, 103, 101, 23, 130, 65, 28, 27, 41, 30, 31, 40, 2, 121, 72, 19, 123, 46, 12, 131, 47, 132, 46, 46, 77, 133, 134, 135, 56, 81, 51, 66, 136, 27, 137, 9, 89, 113, 90, 138, 136, 139, 32, 117, 93, 140, 42, 42, 35, 93, 93, 141, 4, 112, 78, 14, 19, 142, 128, 39, 128, 73, 13];
D=[|false, false, false, false, false, false, false, false, false, false, false, false, false, false, false, false, false, false, false, false, false, false, false, false, false, false, false, false, false, false, false, false, false, false, false, false, false, false, false, false, false, false, false, false, false, false, false, false, false, false, false, false, false, false, false, false, false, false, false, false, false, false, false, false, false, false, false, false, false, false, false, false, false, false, false, false, false, false, false, false, false, false, false, false, false, false, false, false, false, true , false, false, false, false, false, false, false, false, false, false, false, false, false, false, false, false, false, false, false, false, false, false, false, false, false, false, false, false, false, false, false, false, false, false, true , false, false, false, false, false, false, false, false, false, false, false, false, false, false, false, false, false
|false, false, false, false, false, false, false, true , true , false, true , false, false, true , true , false, false, false, true , true , false, false, true , false, false, false, false, false, false, false, false, false, false, false, true , false, false, false, false, false, false, false, true , false, false, true , false, true , false, false, false, false, false, false, false, false, false, true , false, false, false, false, true , false, false, false, false, false, false, false, false, false, false, false, false, false, false, false, false, false, false, false, false, false, true , true , false, false, false, true , false, false, false, false, false, false, false, false, false, false, false, true , false, false, false, false, false, false, false, false, false, false, false, false, false, false, true , true , false, false, false, false, false, false, true , false, false, false, false, false, false, false, false, false, false, false, false, false, false, false, false, false
|false, false, false, false, false, false, false, true , true , false, true , false, false, true , true , false, false, false, true , true , false, false, true , false, false, false, false, false, false, false, false, false, false, false, true , false, false, false, false, false, false, false, true , false, false, true , false, true , false, false, false, false, false, false, false, false, false, true , false, false, false, false, true , false, false, false, false, false, false, false, false, false, false, false, false, false, false, false, false, false, false, false, false, false, true , true , false, false, false, true , false, false, false, false, false, false, false, false, false, false, false, true , false, false, false, false, false, false, false, false, false, false, false, false, false, false, true , true , false, false, false, false, false, false, true , false, false, false, false, false, false, false, false, false, false, false, false, false, false, false, false, false
|false, false, false, false, false, false, false, true , true , false, true , false, false, true , true , false, false, false, true , true , false, false, true , false, false, false, false, false, false, false, false, false, false, false, true , false, false, false, false, false, false, false, true , false, false, true , false, true , false, false, false, false, false, false, false, false, false, true , false, false, false, false, true , false, false, true , false, false, false, false, false, false, false, false, false, false, false, false, false, false, false, false, false, false, true , true , false, false, false, false, false, false, false, false, false, false, false, false, false, false, false, true , false, false, false, false, false, false, false, false, false, false, false, false, false, false, true , true , false, false, false, false, false, false, true , false, false, false, false, false, false, false, false, false, false, false, false, false, false, false, false, false
|false, false, false, false, false, false, false, true , true , false, false, false, false, false, true , false, false, false, false, true , false, false, false, false, false, false, true , false, false, false, false, false, false, false, true , false, false, false, false, false, false, false, false, false, false, true , false, true , false, false, false, false, false, false, false, false, false, false, false, false, false, false, true , false, false, true , false, false, false, false, false, false, false, false, false, false, false, false, false, false, false, false, false, false, true , true , false, false, false, false, false, false, false, false, false, false, false, false, false, false, false, true , false, false, false, false, false, false, false, false, false, false, false, false, false, false, true , true , false, false, false, false, false, false, true , true , false, false, false, false, false, false, true , false, false, false, false, false, false, false, false, false
|false, false, false, false, false, false, false, true , true , false, false, false, false, false, true , false, false, false, false, true , false, false, false, false, false, false, true , false, false, false, false, false, false, false, true , false, false, false, false, false, false, false, false, false, false, true , false, true , false, false, false, false, false, false, false, false, false, false, false, false, false, false, true , false, false, true , false, false, false, false, false, false, false, false, false, false, false, false, false, false, false, false, false, false, true , true , false, false, false, false, false, false, false, false, false, false, false, false, false, false, false, true , false, false, false, false, false, false, false, false, false, false, false, false, false, false, true , true , false, false, false, false, false, false, true , true , false, false, false, false, false, false, true , false, false, false, false, false, false, false, false, false
|false, false, false, false, false, false, false, true , false, false, false, false, false, false, true , false, false, false, false, true , false, false, false, false, false, false, true , false, false, false, false, false, false, false, true , false, false, false, false, false, false, false, false, false, false, true , false, true , false, false, false, false, false, false, false, false, false, false, false, false, false, false, true , false, false, false, false, false, false, false, false, false, false, false, false, false, false, false, false, false, false, false, false, false, true , true , false, false, false, false, false, false, false, false, false, false, false, false, false, false, false, false, false, false, false, false, false, false, false, false, false, false, false, false, false, false, true , true , false, false, false, false, false, false, true , true , false, false, false, false, false, false, true , false, false, false, false, false, false, false, false, false
|false, false, false, false, false, false, false, false, true , false, false, false, false, false, false, false, false, false, false, false, false, false, false, false, false, false, false, false, false, false, false, false, false, false, false, false, false, false, false, false, false, false, false, false, false, true , false, false, false, false, false, false, false, false, false, false, false, false, false, false, false, false, false, false, false, false, false, false, false, false, false, false, false, false, false, false, false, false, false, false, false, false, false, false, true , false, false, false, false, true , false, false, false, false, false, false, false, false, false, false, false, false, false, false, false, false, false, false, false, false, false, false, false, false, false, false, true , true , false, false, false, false, false, false, false, false, false, false, false, false, false, false, false, false, false, false, false, false, false, false, false, false
|true , false, false, false, false, true , false, true , true , false, false, false, false, false, false, false, false, false, true , true , true , true , true , false, false, false, true , false, false, false, false, false, false, false, false, false, false, false, false, false, false, false, true , false, false, true , false, false, false, false, false, false, false, false, false, false, false, false, false, false, false, false, false, false, false, false, false, false, false, false, false, false, false, false, false, false, false, false, false, false, true , false, false, false, true , true , false, false, false, true , false, false, false, false, false, false, false, false, false, false, true , false, false, false, false, false, false, false, false, false, false, false, false, false, false, false, true , true , true , false, true , false, false, false, false, false, false, false, false, false, false, false, false, false, false, false, false, false, false, false, false, false
|true , false, false, false, false, true , false, true , true , false, false, false, false, false, false, false, false, false, true , true , true , true , true , false, false, false, true , false, false, false, false, false, false, false, false, false, true , false, false, false, false, false, true , false, false, true , false, false, false, false, false, true , false, false, true , false, false, false, false, false, false, false, false, false, true , false, false, false, false, false, false, false, false, false, false, false, false, true , false, false, true , false, false, false, true , true , false, false, false, true , false, false, true , false, false, false, false, false, false, false, true , false, false, false, false, false, true , false, false, false, false, false, true , false, false, false, true , true , true , false, true , false, false, false, false, true , false, false, false, false, false, false, false, false, true , false, false, false, false, false, false, false
|true , false, false, false, false, true , false, true , true , false, false, false, false, false, false, false, false, false, true , true , true , true , true , false, false, false, true , false, false, false, false, false, false, false, false, false, true , false, false, false, false, false, true , false, false, true , false, false, false, false, false, true , false, false, true , false, false, false, false, false, false, false, false, false, true , false, false, false, false, false, false, false, false, false, false, false, false, true , false, false, true , false, false, false, true , true , false, false, false, true , false, false, true , false, false, false, false, false, false, false, true , false, false, false, false, false, true , false, false, false, false, false, true , false, false, false, true , true , true , false, true , false, false, false, false, true , false, false, false, false, false, false, false, false, true , false, false, false, false, false, false, false
|false, false, false, false, false, false, false, false, true , false, false, false, false, false, false, false, false, false, false, true , true , true , true , false, false, false, true , false, false, false, false, false, false, false, false, false, true , false, false, false, false, false, true , false, false, false, false, false, false, false, false, true , false, false, true , false, false, false, false, false, false, false, false, false, true , false, false, false, false, false, false, false, false, false, false, false, false, true , false, false, false, false, false, false, true , true , false, false, false, true , false, false, true , false, false, false, false, false, false, false, true , false, false, false, false, false, true , false, false, false, false, false, true , false, false, false, true , true , true , false, true , false, false, false, false, true , false, false, false, false, false, false, false, false, true , false, false, false, false, false, false, false
|false, false, false, false, false, false, false, true , false, false, false, true , false, false, true , false, true , false, false, true , false, false, false, false, false, false, false, false, false, false, false, false, false, false, false, false, true , false, false, false, false, false, false, false, false, false, false, true , false, true , false, true , false, false, true , false, false, false, false, false, false, true , false, false, false, true , false, false, false, false, false, false, false, false, false, false, false, false, false, false, true , false, true , false, false, false, false, true , false, true , false, false, true , false, false, false, false, false, false, false, false, false, false, false, false, false, true , false, true , false, false, false, true , false, true , false, true , true , false, false, false, false, false, false, true , false, false, true , false, false, false, false, false, false, false, false, false, false, false, false, false, false
|false, false, false, false, false, false, false, true , false, false, false, true , false, false, true , false, true , false, false, true , false, false, false, false, false, false, false, false, false, false, false, false, false, false, false, false, true , false, false, false, false, false, false, false, false, false, false, true , false, true , false, true , false, false, true , false, false, false, false, false, false, true , false, false, false, true , false, false, false, false, false, false, false, false, false, false, false, false, false, false, true , false, true , false, false, false, false, true , false, true , false, false, true , false, false, false, false, false, false, false, false, false, false, false, false, false, true , false, true , false, false, false, true , false, true , false, true , true , false, false, false, false, false, false, true , false, false, true , false, false, false, false, false, false, false, false, false, false, false, false, false, false
|false, false, false, false, false, false, false, true , false, false, false, true , false, false, true , false, true , false, false, true , false, false, false, false, false, false, false, false, false, false, false, false, false, false, false, false, true , false, false, false, false, false, false, false, false, false, false, true , false, true , false, true , false, false, true , false, false, false, false, false, false, true , false, false, false, true , false, false, false, false, false, false, false, false, false, false, false, false, false, false, true , false, true , false, false, false, false, true , false, true , false, false, true , false, false, false, false, false, false, false, false, false, false, false, false, false, true , false, true , false, false, false, true , false, true , false, true , true , false, false, false, false, false, false, true , false, false, true , false, false, false, false, false, false, false, false, false, false, false, false, false, false
|false, false, false, false, false, false, false, true , false, false, false, true , false, false, true , false, true , false, false, true , false, false, false, false, false, false, false, false, false, false, false, false, false, false, false, false, true , false, false, false, false, false, false, false, false, false, false, true , false, true , false, true , false, false, true , false, false, false, false, false, false, true , false, false, false, true , false, false, false, false, false, false, false, false, false, false, false, false, false, false, true , false, true , false, false, false, false, true , false, true , false, false, true , false, false, false, false, false, false, false, false, false, false, false, false, false, true , false, true , false, false, false, true , false, true , false, true , true , false, false, false, false, false, false, true , false, false, true , false, false, false, false, false, false, false, false, false, false, false, false, false, false
|false, false, false, false, false, false, false, false, false, false, false, false, false, false, false, false, false, false, false, false, false, false, false, false, false, false, false, false, false, false, false, false, false, false, false, false, false, false, false, false, false, false, false, false, false, false, false, false, false, false, true , false, false, false, false, false, false, false, false, false, false, false, false, false, false, false, false, false, false, false, false, false, false, false, false, false, false, false, false, false, false, false, false, false, false, false, false, false, false, true , false, false, false, false, false, false, false, false, false, false, false, false, false, false, false, false, false, false, false, false, false, false, false, false, false, false, false, false, false, false, false, false, false, false, true , false, false, false, false, false, false, false, false, false, false, false, false, false, false, false, false, false
|false, true , false, true , false, false, false, true , false, false, true , false, false, true , false, false, true , false, false, true , false, false, false, false, false, false, true , false, false, false, false, false, false, false, false, false, false, true , false, false, false, false, false, false, false, true , false, false, false, false, true , false, false, false, false, false, false, true , false, false, true , false, false, false, false, false, false, true , false, false, false, false, false, false, false, false, false, false, false, false, false, false, false, false, true , true , false, false, false, true , false, false, false, false, false, false, true , false, false, true , true , false, true , false, false, false, false, false, false, false, true , true , false, false, false, false, true , true , true , true , false, false, true , false, true , false, false, false, false, false, false, false, false, false, false, false, false, false, false, true , false, false
|false, true , false, true , false, false, false, true , false, false, true , false, false, true , false, false, true , false, false, true , false, false, false, false, false, false, true , false, false, false, false, false, false, false, false, false, false, true , false, false, false, false, false, false, false, true , false, false, false, false, true , false, false, false, false, false, false, true , false, false, true , false, false, false, false, false, false, true , false, false, false, false, false, false, false, false, false, false, false, false, false, false, false, false, true , true , false, false, false, true , false, false, false, false, false, false, true , false, false, true , true , false, true , false, false, false, false, false, false, false, true , true , false, false, false, false, true , true , true , true , false, false, true , false, true , false, false, false, false, false, false, false, false, false, false, false, false, false, false, true , false, false
|false, true , false, true , false, false, false, true , true , false, true , false, false, true , false, false, true , false, false, true , false, false, false, false, false, false, true , false, false, false, false, false, false, false, false, false, false, true , false, true , false, false, false, false, false, true , false, false, false, false, true , false, false, false, false, false, false, true , false, false, true , false, false, false, false, true , false, true , false, false, false, false, false, false, false, false, false, false, false, false, false, false, false, false, true , true , false, false, false, true , false, false, false, false, false, false, true , false, false, true , true , true , true , false, false, false, false, false, false, false, true , true , false, false, false, false, true , true , true , true , false, false, true , false, true , false, false, false, false, false, false, false, false, false, false, false, false, false, false, true , false, false
|false, true , false, true , false, false, true , true , true , false, false, false, false, false, false, false, false, false, false, true , true , false, false, false, false, false, true , false, false, true , false, false, false, false, false, false, false, true , false, true , false, false, false, false, true , true , false, false, false, false, false, false, false, false, false, false, false, true , false, false, false, false, false, false, false, true , true , false, true , false, false, false, false, false, true , true , false, false, false, false, true , false, false, true , true , true , false, false, false, true , false, true , false, false, false, false, true , false, false, true , true , true , false, false, true , false, false, false, false, false, false, false, false, false, false, false, true , true , false, true , false, false, false, false, true , false, false, false, false, false, false, false, false, false, false, false, false, false, false, false, false, false
|false, true , false, true , false, false, true , true , true , false, false, false, false, false, false, false, false, false, false, true , true , false, false, false, false, false, true , false, false, true , false, false, false, false, false, false, false, true , false, true , false, false, false, false, true , true , false, false, false, false, false, false, false, false, false, false, false, true , false, false, false, false, false, false, false, true , true , false, true , false, false, false, false, false, true , true , false, false, false, false, true , false, false, true , true , true , false, false, false, true , false, true , false, false, false, false, true , false, false, true , true , true , false, false, true , false, false, false, false, false, false, false, false, false, false, false, true , true , false, true , false, false, false, false, true , false, false, false, false, false, false, false, false, false, false, false, false, false, false, false, false, false
|false, true , false, true , false, false, true , true , false, false, false, false, false, false, false, false, false, false, false, true , true , false, false, false, false, false, true , false, false, true , false, false, false, false, false, false, false, true , false, false, false, false, false, false, true , true , false, false, false, false, false, false, false, false, false, false, false, true , false, false, false, false, false, false, false, false, true , false, true , false, false, false, false, false, true , true , false, false, false, false, true , false, false, true , true , false, false, false, false, true , false, true , false, false, false, false, true , false, false, true , true , false, false, false, true , false, false, false, false, false, false, false, false, false, false, false, true , true , false, true , false, false, false, false, true , false, false, false, false, false, false, false, false, false, false, false, false, false, false, false, false, false
|false, false, false, true , false, false, false, false, true , false, false, true , false, false, false, false, false, false, false, false, false, false, false, false, false, false, false, false, false, false, false, false, false, false, false, false, false, false, false, false, false, false, false, false, false, true , false, true , false, false, false, false, false, false, false, false, false, false, false, false, false, false, false, false, false, false, false, false, false, false, false, false, false, false, false, false, false, false, false, false, true , false, false, false, true , false, false, false, false, true , false, false, false, false, false, false, false, false, false, false, false, true , false, false, false, false, false, false, false, false, false, false, false, false, false, false, true , true , true , false, false, false, false, false, true , false, false, false, false, false, false, false, false, false, false, false, false, false, false, false, false, false
|false, true , false, true , false, false, false, true , true , false, false, true , false, false, false, false, false, false, false, false, false, false, false, false, false, true , false, false, false, false, false, false, false, false, false, false, false, true , false, false, false, false, true , false, false, true , false, true , false, false, false, false, false, false, false, false, false, false, false, false, false, false, false, false, false, false, false, false, false, false, false, false, false, true , false, true , false, false, false, false, true , false, false, true , true , true , false, false, false, true , false, false, false, false, false, false, false, false, false, false, false, true , false, false, false, false, false, false, true , false, false, false, false, false, false, false, true , true , true , true , false, true , false, false, true , true , false, false, false, true , false, false, false, false, false, false, false, false, true , false, false, false
|false, true , false, true , false, false, true , true , true , false, false, true , false, false, false, false, false, false, false, false, false, false, false, false, false, true , false, false, false, false, false, false, false, false, false, false, true , true , false, false, false, false, true , false, false, true , false, true , false, false, false, false, true , false, false, true , false, true , false, false, false, false, false, false, true , false, false, false, false, false, false, false, false, true , false, true , false, false, false, true , true , true , false, true , true , true , false, false, false, true , false, false, true , false, false, false, false, false, false, false, false, true , false, false, false, true , true , false, true , true , false, false, false, false, false, false, true , true , true , true , false, true , false, true , true , true , false, false, false, true , false, false, false, false, false, false, false, false, true , false, false, false
|false, true , false, true , false, false, true , true , true , false, false, true , false, false, false, false, false, false, false, false, false, false, false, false, false, true , false, false, false, false, false, false, false, false, false, false, true , true , false, false, false, false, true , false, false, true , false, true , false, false, false, false, true , false, false, true , false, true , false, false, false, false, false, false, true , false, false, false, false, false, false, false, false, true , false, true , false, false, false, true , true , true , false, true , true , true , false, false, false, true , false, false, true , false, false, false, false, false, false, false, false, false, false, false, false, true , true , false, true , true , false, false, false, false, false, false, true , true , true , true , false, true , false, true , false, true , false, false, false, true , false, false, false, false, false, false, false, false, true , false, false, false
|false, false, false, false, false, false, true , false, true , false, false, false, false, false, false, false, false, false, false, false, false, false, false, false, false, false, false, false, false, false, false, false, false, false, false, false, true , false, false, false, false, false, true , false, false, false, false, true , false, false, false, false, true , false, false, true , false, true , false, false, false, false, false, false, true , false, false, false, false, false, false, false, false, true , false, false, false, false, false, true , true , true , false, false, false, true , false, false, false, true , false, false, true , false, false, false, false, false, false, false, false, false, false, false, false, true , true , false, false, true , false, false, false, false, false, false, true , true , true , false, false, false, false, true , false, false, false, false, false, false, false, false, false, false, false, false, false, false, false, false, false, false
|false, false, false, false, true , false, false, true , false, false, false, true , false, true , true , false, true , false, true , false, false, false, false, false, false, false, false, false, false, false, false, false, false, false, false, false, true , true , true , false, false, false, false, false, false, false, false, false, true , false, false, false, true , false, false, true , false, true , false, true , false, true , true , false, true , false, false, false, true , false, false, false, false, false, false, false, false, false, true , false, true , false, true , false, true , false, false, false, false, true , false, false, true , false, false, false, false, false, false, false, false, true , false, false, false, false, true , false, true , false, false, false, false, false, false, false, true , false, false, false, false, false, false, false, true , false, true , true , false, false, false, false, false, false, false, false, false, false, false, false, false, true 
|false, false, false, false, true , false, false, true , false, false, false, true , false, true , true , false, true , false, true , false, false, false, false, false, false, false, false, false, false, false, false, false, false, false, false, false, true , true , true , false, false, false, false, false, false, false, false, false, true , false, false, false, true , false, false, true , false, true , false, true , false, true , true , false, true , false, false, false, true , false, false, false, false, false, false, false, false, false, true , false, true , false, true , false, true , false, false, false, false, true , false, false, true , false, false, false, false, false, false, false, false, true , false, false, false, false, true , false, true , false, false, false, false, false, false, false, true , false, false, false, false, false, false, false, true , false, true , true , false, false, false, false, false, false, false, false, false, false, false, false, false, true 
|false, false, false, false, true , false, false, true , false, false, false, true , false, true , true , false, true , false, true , false, false, false, false, false, false, false, false, false, false, false, false, false, false, false, false, false, true , true , true , false, false, false, false, false, false, false, false, false, true , false, false, false, true , false, false, true , false, true , false, true , false, true , true , false, true , false, false, false, true , false, false, false, false, false, false, false, false, false, true , false, true , false, true , false, true , false, false, false, false, true , false, false, true , false, false, false, false, false, false, false, false, true , false, false, false, false, true , false, true , false, false, false, false, false, false, false, true , false, false, false, false, false, false, false, true , false, true , true , false, false, false, false, false, false, false, false, false, false, false, false, false, true 
|false, false, false, false, true , false, false, true , false, false, false, true , false, true , true , false, true , false, true , false, false, false, false, false, false, false, false, false, false, false, false, false, false, false, false, false, true , true , true , false, false, false, false, false, false, false, false, false, true , false, false, false, true , false, false, true , false, true , false, true , false, true , true , false, true , false, false, false, true , false, false, false, false, false, false, false, false, false, true , false, true , false, true , false, true , false, false, false, false, true , false, false, true , false, false, false, false, false, false, false, false, true , false, false, false, false, true , false, true , false, false, false, false, false, false, false, true , false, false, false, false, false, false, false, true , false, true , true , false, false, false, false, false, false, false, false, false, false, false, false, false, true 
|false, false, false, false, false, false, false, false, false, false, false, false, false, false, false, false, false, false, false, false, false, false, false, false, false, false, false, false, false, false, false, false, false, false, false, false, false, false, false, false, false, false, false, false, false, false, false, false, false, false, true , false, false, false, false, false, false, false, false, false, false, false, false, false, false, false, false, false, false, false, false, false, false, false, false, false, false, false, false, false, false, false, false, false, false, false, false, false, false, true , false, false, false, false, false, false, false, false, false, false, false, false, false, false, false, false, false, false, false, false, false, false, false, false, false, false, false, false, false, false, false, false, false, false, true , false, false, false, false, false, false, false, false, false, false, false, false, false, false, false, false, false
|false, true , false, false, false, false, true , true , false, false, true , true , true , true , false, false, true , false, false, false, false, true , false, false, false, true , false, false, false, false, false, false, false, false, false, false, false, true , true , true , true , false, false, false, false, true , false, true , false, false, true , false, false, false, false, true , true , true , false, false, false, false, false, false, false, false, true , false, false, false, false, false, false, false, false, false, false, false, false, true , false, true , false, false, false, true , false, true , false, true , false, false, false, true , false, true , false, false, true , false, false, true , true , false, false, false, false, false, false, false, false, false, false, false, false, false, true , true , false, false, false, false, false, false, true , true , false, false, false, false, true , false, false, false, false, false, false, false, false, false, false, false
|false, true , false, false, false, false, true , true , false, false, true , true , true , true , false, false, true , false, false, false, false, true , false, false, false, true , false, false, false, false, false, false, false, false, false, false, false, true , true , true , true , false, false, false, false, true , false, true , false, false, true , false, false, false, false, true , true , true , false, false, false, false, false, false, false, false, true , false, false, false, false, false, false, false, false, false, false, false, false, true , false, true , false, false, false, true , false, true , false, true , false, false, false, true , false, true , false, false, true , false, false, true , true , false, false, false, false, false, false, false, false, false, false, false, false, false, true , true , false, false, false, false, false, false, true , true , false, false, false, false, true , false, false, false, false, false, false, false, false, false, false, false
|false, true , false, false, false, false, true , true , false, false, true , true , true , true , false, false, true , false, false, false, false, true , false, false, false, true , false, false, false, false, false, false, false, false, false, false, false, true , true , true , true , false, false, false, false, true , true , true , false, false, true , false, false, false, false, true , true , true , false, false, false, false, false, false, false, true , true , false, false, false, false, false, false, false, false, false, false, false, false, true , false, true , false, false, false, true , false, true , false, true , false, false, false, true , false, true , false, false, true , false, false, true , true , false, false, false, false, false, false, false, false, false, false, false, false, false, true , true , false, false, false, false, false, false, true , true , false, false, false, false, true , false, false, false, false, false, false, false, false, false, false, false
|false, true , false, false, false, false, true , true , false, false, false, true , true , false, false, false, false, false, false, false, false, true , false, false, false, false, false, false, true , false, false, false, false, false, false, false, false, true , false, true , true , false, false, false, false, true , true , false, true , false, false, false, false, false, false, true , false, true , false, false, false, false, false, false, false, true , false, false, false, false, false, false, true , true , true , true , false, false, true , true , false, false, false, true , false, false, false, false, false, true , false, false, false, true , false, true , false, false, true , false, false, true , true , false, true , false, false, false, false, false, false, false, false, false, false, false, true , true , false, false, false, false, false, false, true , false, false, false, false, false, true , false, false, false, false, false, false, false, false, false, false, false
|false, true , false, false, false, false, true , true , false, false, false, true , true , false, false, false, false, false, false, false, false, true , false, false, false, false, false, false, true , false, false, false, false, false, false, false, false, true , false, true , true , false, false, false, false, true , true , false, true , false, false, false, false, false, false, true , false, true , false, false, false, false, false, false, false, true , false, false, false, false, false, false, true , true , true , true , false, false, true , true , false, false, false, true , false, false, false, false, false, true , false, false, false, true , false, true , false, false, true , false, false, true , true , false, true , false, false, false, false, false, false, false, false, false, false, false, true , true , false, false, false, false, false, false, true , false, false, false, false, false, true , false, false, false, false, false, false, false, false, false, false, false
|false, true , false, false, false, false, true , true , false, false, false, false, true , false, false, false, false, false, false, false, false, true , false, false, false, false, false, false, true , false, false, false, false, false, false, false, false, true , false, false, true , false, false, false, false, true , false, false, true , false, false, false, false, false, false, true , false, true , false, false, false, false, false, false, false, false, false, false, false, false, false, false, true , true , true , true , false, false, true , true , false, false, false, true , false, false, false, false, false, true , false, false, false, true , false, true , false, false, true , false, false, false, true , false, true , false, false, false, false, false, false, false, false, false, false, false, true , true , false, false, false, false, false, false, false, false, false, false, false, false, true , false, false, false, false, false, false, false, false, false, false, false
|false, true , false, false, false, false, false, false, false, false, false, false, false, false, false, false, false, false, false, false, false, false, false, false, false, false, false, false, false, false, false, false, false, false, false, false, false, false, false, true , false, false, false, false, false, true , false, false, false, false, false, false, false, false, false, false, false, false, false, false, false, false, false, false, false, false, false, false, false, false, false, false, false, false, false, false, false, false, false, false, false, false, false, false, false, false, false, false, false, true , false, false, false, false, false, false, false, false, false, false, false, true , false, false, false, false, false, false, false, false, false, false, false, false, false, false, true , true , true , false, false, false, false, false, true , false, false, false, false, false, false, false, false, false, false, false, false, false, false, false, false, false
|false, true , false, false, false, false, false, true , true , false, false, false, true , false, false, false, false, false, false, false, false, false, false, false, false, false, true , false, false, false, false, false, false, false, false, false, false, true , false, true , true , true , false, false, false, true , true , false, false, false, false, false, false, false, false, false, false, false, false, false, false, false, false, false, false, false, false, false, false, false, false, true , true , false, false, true , false, false, false, true , true , false, false, true , false, false, false, false, false, true , false, false, false, false, false, false, false, false, false, false, true , true , false, false, false, false, false, false, false, false, false, false, false, false, false, false, true , true , true , false, false, false, false, false, true , false, false, false, false, false, false, false, false, false, false, false, false, false, false, true , false, false
|false, true , false, false, false, false, true , true , true , false, false, false, true , false, false, false, false, false, false, false, false, false, false, false, false, false, true , false, false, false, false, false, false, false, false, false, true , true , false, true , true , true , false, false, false, true , true , false, false, false, false, false, true , false, false, true , false, true , false, false, false, false, false, false, true , false, false, false, false, false, false, true , true , true , false, true , true , false, false, true , true , false, false, true , false, false, false, false, false, true , false, true , true , false, false, false, false, false, false, false, true , true , false, false, false, false, false, false, false, false, false, false, false, false, false, false, true , true , true , false, false, false, false, true , true , false, false, false, false, false, false, true , false, false, false, false, true , false, false, true , false, false
|false, false, false, false, false, false, true , true , true , false, false, false, true , false, false, false, false, false, false, false, false, false, false, false, false, false, true , false, false, false, false, false, false, false, false, false, true , true , false, false, true , true , false, false, false, true , true , false, false, false, false, false, true , false, false, true , false, true , false, false, false, false, false, false, true , false, false, false, false, false, false, true , true , true , false, true , true , false, false, true , true , false, false, true , false, false, false, false, false, true , false, true , true , false, false, false, false, false, false, false, true , false, false, false, false, false, false, false, false, false, false, false, false, false, false, false, true , true , false, false, false, false, false, true , false, false, false, false, false, false, false, true , false, false, false, false, true , false, false, true , false, false
|false, false, false, false, false, false, true , false, true , false, false, false, true , false, false, false, false, false, false, false, false, false, false, false, false, false, true , false, false, false, false, false, false, false, false, false, true , false, false, false, true , true , false, false, false, false, false, false, false, false, false, false, true , false, false, true , false, true , false, false, false, false, false, false, true , false, false, false, false, false, false, false, false, true , false, false, true , false, false, false, true , false, false, false, false, false, false, false, false, true , false, true , true , false, false, false, false, false, false, false, false, false, false, false, false, false, false, false, false, false, false, false, false, false, false, false, true , false, false, false, false, false, false, true , false, false, false, false, false, false, false, true , false, false, false, false, true , false, false, false, false, false
|false, false, false, false, true , false, false, true , false, false, false, false, true , false, true , true , false, true , false, false, false, false, false, false, false, false, false, false, false, false, false, false, false, false, false, false, false, false, true , false, false, false, false, false, false, false, false, false, true , false, true , false, true , false, false, true , false, true , false, false, true , true , false, true , true , true , true , false, false, false, false, false, true , false, false, false, true , false, true , true , true , false, true , false, false, false, false, false, false, true , false, false, true , false, false, false, false, false, false, false, false, false, false, false, true , false, false, false, false, false, false, false, false, true , false, false, true , false, true , true , false, false, false, false, false, false, true , false, false, false, false, true , false, false, false, false, false, false, false, false, false, false
|false, false, false, false, true , false, false, true , false, false, false, false, true , false, true , true , false, true , false, false, false, false, false, false, false, false, false, false, false, false, false, false, false, false, false, false, false, false, true , false, false, false, false, false, false, false, false, false, true , false, true , false, true , false, false, true , false, true , false, false, true , true , false, true , true , true , true , false, false, false, false, false, true , false, false, false, true , false, true , true , true , false, true , false, false, false, false, false, false, true , false, false, true , false, false, false, false, false, false, false, false, false, false, false, true , false, false, false, false, false, false, false, false, true , false, false, true , false, true , true , false, false, false, false, false, false, true , false, false, false, false, true , false, false, false, false, false, false, false, false, false, false
|false, false, false, false, true , false, false, true , false, false, false, false, true , false, true , true , false, true , false, false, false, false, false, false, false, false, false, false, false, false, false, false, false, false, false, false, false, false, true , false, false, false, false, false, false, false, false, false, true , false, true , false, true , false, false, true , false, true , false, false, true , true , false, true , true , true , true , false, false, false, false, false, true , false, false, false, true , false, true , true , true , false, true , false, false, false, false, false, false, true , false, false, true , false, false, false, false, false, false, false, false, false, false, false, true , false, false, false, false, false, false, false, false, true , false, false, true , false, true , true , false, false, false, false, false, false, true , false, false, false, false, true , false, false, false, false, false, false, false, false, false, false
|false, false, false, false, true , false, false, true , false, false, false, false, true , false, true , true , false, true , false, false, false, false, false, false, false, false, false, false, false, false, false, false, false, false, false, false, false, false, true , false, false, false, false, false, false, false, false, false, true , false, true , false, true , false, false, true , false, true , false, false, true , true , false, true , true , true , true , false, false, false, false, false, true , false, false, false, true , false, true , true , true , false, true , false, false, false, false, false, false, true , false, false, true , false, false, false, false, false, false, false, false, false, false, false, true , false, false, false, false, false, false, false, false, true , false, false, true , false, true , true , false, false, false, false, false, false, true , false, false, false, false, true , false, false, false, false, false, false, false, false, false, false
|false, false, false, false, false, false, false, false, false, false, false, false, false, false, false, false, false, false, false, false, false, false, false, false, false, false, false, false, false, false, false, false, false, false, false, false, false, false, false, false, false, false, false, false, false, false, false, false, false, false, true , false, false, false, false, false, false, false, false, false, false, false, false, false, false, false, false, false, false, false, false, false, false, false, false, false, false, false, false, false, false, false, false, false, false, false, false, false, false, true , false, false, false, false, false, false, false, false, false, false, false, false, false, false, false, false, false, false, false, false, false, false, false, false, false, false, false, false, false, false, false, false, false, false, true , false, false, false, false, false, false, false, false, false, false, false, false, false, false, false, false, false
|false, true , true , true , false, false, false, false, false, false, true , false, false, true , false, false, false, false, false, false, false, false, false, false, false, true , true , false, false, false, true , false, false, false, true , false, false, true , true , true , true , true , false, false, false, true , false, false, false, false, true , false, false, false, false, false, false, true , false, false, false, false, true , false, false, false, false, true , false, false, true , false, false, false, false, false, false, false, false, false, true , false, false, false, true , true , false, true , false, true , false, false, false, true , false, false, true , false, false, true , true , false, false, false, false, false, false, false, false, false, false, true , false, false, false, false, true , false, true , true , true , false, true , false, true , false, false, false, true , false, false, false, false, false, true , false, false, false, false, false, false, false
|false, true , true , true , false, false, false, false, false, false, true , false, false, true , false, false, false, false, false, false, false, false, false, false, false, true , true , false, false, false, true , false, false, false, true , false, false, true , true , true , true , true , false, false, false, true , false, false, false, false, true , false, false, false, false, false, false, true , false, false, false, false, true , false, false, false, false, true , false, false, true , false, false, false, false, false, false, false, false, false, true , false, false, false, true , true , false, true , false, true , false, false, false, true , false, false, true , false, false, true , true , false, false, false, false, false, false, false, false, false, false, true , false, false, false, false, true , false, true , true , true , false, true , false, true , false, false, false, true , false, false, false, false, false, true , false, false, false, false, false, false, false
|false, true , true , true , false, false, false, false, false, false, true , false, false, true , false, false, false, false, false, false, false, false, false, true , false, true , true , false, false, false, true , false, false, false, true , false, false, true , true , true , true , true , false, false, false, true , false, true , false, false, true , false, false, false, false, false, false, true , false, false, false, false, true , false, false, true , false, true , false, false, true , false, false, false, false, false, false, false, false, false, true , false, false, false, true , true , false, true , false, true , false, false, false, true , false, false, true , false, false, true , true , true , false, false, false, false, false, false, false, false, false, true , false, false, false, false, true , false, true , true , true , false, true , false, true , false, false, false, true , false, false, false, false, false, true , false, false, false, false, false, false, false
|false, true , false, true , false, false, true , false, false, false, false, false, false, false, false, false, true , false, false, false, false, false, false, true , false, false, true , false, false, false, true , false, true , false, true , true , false, true , false, true , true , true , false, false, false, true , true , true , true , false, false, false, false, false, false, false, false, false, false, false, false, false, true , false, false, true , false, false, false, false, false, false, false, false, false, true , false, false, false, false, true , false, false, true , true , true , false, false, false, true , false, false, false, true , true , false, true , false, false, true , true , true , false, false, false, false, false, false, false, false, false, false, false, false, false, false, true , false, false, true , true , false, false, false, true , false, false, false, true , false, false, false, false, true , false, false, false, true , false, false, false, false
|false, true , false, true , false, false, true , false, false, false, false, false, false, false, false, false, true , false, false, false, false, false, false, true , false, false, true , false, false, false, true , false, true , false, true , true , false, true , false, true , true , true , false, false, false, true , true , true , true , false, false, false, false, false, false, false, false, false, false, false, false, false, true , false, false, true , false, false, false, false, false, false, false, false, false, true , false, false, false, false, true , false, false, true , true , true , false, false, false, true , false, false, false, true , true , false, true , false, false, true , true , true , false, false, false, false, false, false, false, false, false, false, false, false, false, false, true , false, false, true , true , false, false, false, true , false, false, false, true , false, false, false, false, true , false, false, false, true , false, false, false, false
|false, true , false, true , false, false, true , false, false, false, false, false, false, false, false, false, true , false, false, false, false, false, false, true , false, false, true , false, false, false, true , false, true , false, true , true , false, true , false, false, true , true , false, false, false, true , true , false, true , false, false, false, false, false, false, false, false, false, false, false, false, false, true , false, false, false, false, false, false, false, false, false, false, false, false, true , false, false, false, false, true , false, false, true , true , false, false, false, false, true , false, false, false, true , true , false, true , false, false, true , true , false, false, false, false, false, false, false, false, false, false, false, false, false, false, false, true , false, false, true , true , false, false, false, false, false, false, false, true , false, false, false, false, true , false, false, false, true , false, false, false, false
|false, true , false, false, false, false, false, false, false, false, false, false, false, false, false, false, false, false, false, false, false, false, false, false, false, false, false, false, false, false, true , false, false, false, false, false, false, false, false, true , false, false, false, false, false, true , false, false, false, false, false, false, false, false, false, false, false, false, false, false, false, false, false, false, false, false, false, false, false, false, false, false, false, false, false, false, false, false, false, false, false, false, false, false, false, false, false, false, false, true , false, false, false, false, false, false, false, false, false, false, false, true , false, false, false, false, false, false, false, false, false, false, false, false, false, false, true , false, true , false, false, false, false, false, false, false, false, false, false, false, false, false, false, false, false, false, false, false, false, false, false, false
|false, true , true , true , false, false, false, true , false, false, false, false, false, false, false, false, false, true , false, false, false, false, true , true , false, false, false, false, false, false, true , false, true , false, false, false, false, true , false, true , true , true , false, false, false, true , true , false, false, false, false, false, false, false, false, false, false, false, false, false, false, false, false, false, false, false, false, false, false, false, false, true , false, false, false, true , false, false, false, false, false, false, true , true , true , true , false, false, false, true , false, false, false, false, true , false, false, true , false, false, true , true , false, false, false, false, false, false, false, false, false, false, false, false, false, false, true , false, true , true , true , false, false, false, false, false, false, false, false, false, false, false, false, false, false, false, false, false, false, false, false, false
|false, true , true , true , false, false, false, true , false, false, false, false, false, false, false, false, false, true , false, false, false, false, true , true , false, false, false, false, false, false, true , false, true , false, false, true , false, true , false, true , true , true , false, false, false, true , true , true , false, false, false, false, true , false, false, true , false, false, false, false, false, false, false, false, true , false, false, false, false, false, false, true , false, false, false, true , false, false, false, true , true , false, true , true , true , true , false, false, false, true , false, false, true , false, true , false, false, true , false, false, true , true , false, false, false, false, true , false, true , false, false, false, false, false, false, false, true , false, true , true , true , false, false, true , false, false, false, false, false, false, false, false, false, false, false, false, false, false, false, false, false, false
|false, true , true , true , false, false, false, true , false, false, false, false, false, false, false, false, false, true , false, false, false, false, true , true , false, false, false, false, false, false, true , false, true , false, false, true , false, true , false, true , true , true , false, false, false, true , true , true , false, false, false, false, true , false, false, true , false, false, false, false, false, false, false, false, true , false, false, false, false, false, false, true , false, false, false, true , false, false, false, true , true , false, true , true , true , true , false, false, false, true , false, false, true , false, true , false, false, true , false, false, true , true , false, false, false, false, true , false, true , false, false, false, false, false, false, false, true , false, true , true , true , false, false, true , false, false, false, false, false, false, false, false, false, false, false, false, false, false, false, false, false, false
|false, true , false, false, false, false, false, false, false, false, false, false, false, false, false, false, false, false, false, false, false, false, false, false, false, false, false, false, false, false, false, false, false, false, false, true , false, false, false, true , true , false, false, false, false, false, false, true , false, false, false, false, true , false, false, true , false, false, false, false, false, false, false, false, true , false, false, false, false, false, false, false, false, false, false, false, false, false, false, true , true , false, true , false, false, true , false, false, false, true , false, false, true , false, true , false, false, false, false, false, false, true , false, false, false, false, true , false, true , false, false, false, false, false, false, false, true , false, true , false, false, false, false, true , false, false, false, false, false, false, false, false, false, false, false, false, false, false, false, false, false, false
|false, false, false, false, false, false, false, true , false, true , false, false, false, true , true , true , true , false, false, false, false, false, false, false, false, true , false, false, false, false, false, false, false, false, false, false, false, false, true , false, false, false, false, false, false, false, false, true , true , false, false, false, true , false, false, true , false, false, true , true , false, true , false, false, true , true , false, false, false, false, false, false, false, false, false, false, false, false, false, false, false, false, true , false, false, false, false, false, false, true , false, false, true , false, true , false, false, false, false, false, false, false, false, false, false, false, true , false, false, false, false, true , false, false, false, true , true , false, false, false, true , false, false, false, false, false, true , false, false, false, false, false, false, false, false, false, false, false, false, false, false, false
|false, false, false, false, false, false, false, true , false, true , false, false, false, true , true , true , true , false, false, false, false, false, false, false, false, true , false, false, false, false, false, false, false, false, false, false, false, false, true , false, false, false, false, false, false, false, false, true , true , false, false, false, true , false, false, true , false, false, true , true , false, true , false, false, true , true , false, false, false, false, false, false, false, false, false, false, false, false, false, false, false, false, true , false, false, false, false, false, false, true , false, false, true , false, true , false, false, false, false, false, false, false, false, false, false, false, true , false, false, false, false, true , false, false, false, true , true , false, false, false, true , false, false, false, false, false, true , false, false, false, false, false, false, false, false, false, false, false, false, false, false, false
|false, false, false, false, false, false, false, true , false, true , false, false, false, true , true , true , true , false, false, false, false, false, false, false, false, true , false, false, false, false, false, false, false, false, false, false, false, false, true , false, false, false, false, false, false, false, false, true , true , false, false, false, true , false, false, true , false, false, true , true , false, true , false, false, true , true , false, false, false, false, false, false, false, false, false, false, false, false, false, false, false, false, true , false, false, false, false, false, false, true , false, false, true , false, false, false, false, false, false, false, false, false, false, false, false, false, true , false, false, false, false, true , false, false, false, true , true , false, false, false, true , false, false, false, false, false, true , false, false, false, false, false, false, false, false, false, false, false, false, false, false, false
|false, false, false, false, false, false, false, true , false, true , false, false, false, true , true , true , true , false, false, false, false, false, false, false, false, true , false, false, false, false, false, false, false, false, false, false, false, false, true , false, false, false, false, false, false, false, false, true , true , false, false, false, true , false, false, true , false, false, true , true , false, true , false, false, true , true , false, false, false, false, false, false, false, false, false, false, false, false, false, false, false, false, true , false, false, false, false, false, false, true , false, false, true , false, false, false, false, false, false, false, false, false, false, false, false, false, true , false, false, false, false, true , false, false, false, true , true , false, false, false, true , false, false, false, false, false, true , false, false, false, false, false, false, false, false, false, false, false, false, false, false, false
|false, false, false, false, false, false, false, false, false, false, false, false, false, false, false, false, true , false, false, false, false, false, false, false, false, false, false, false, false, false, false, false, false, false, false, false, false, false, false, false, false, false, false, false, false, false, false, false, false, false, true , false, false, false, false, false, false, false, false, false, false, false, false, false, false, false, false, false, false, false, false, false, false, false, false, false, false, false, false, false, false, false, false, false, false, false, false, false, false, true , false, false, false, false, false, false, false, false, false, false, false, false, false, false, false, false, false, false, false, false, false, false, false, false, false, false, false, false, false, false, false, false, false, false, true , false, false, false, false, false, false, false, false, false, false, false, false, false, false, false, false, false
|false, false, false, false, false, false, false, false, false, false, true , false, true , false, false, false, true , false, false, true , false, false, false, false, false, false, true , true , false, false, false, true , true , false, false, false, false, false, true , false, false, false, false, true , false, true , false, false, false, false, true , false, false, false, false, false, false, false, false, false, true , false, true , true , false, true , false, false, false, false, true , false, false, false, false, false, false, false, false, false, false, false, false, false, true , false, false, false, false, true , false, false, false, false, false, false, true , false, false, false, false, false, true , false, false, false, false, false, false, false, false, true , false, false, false, false, true , false, true , false, true , false, true , false, true , false, false, false, false, false, true , false, false, false, false, false, false, false, false, false, false, false
|false, false, false, false, false, false, false, false, false, false, true , false, true , false, false, false, true , false, false, true , false, false, false, false, false, false, true , true , false, false, false, true , true , false, false, false, false, false, true , false, false, false, false, true , false, true , false, false, false, false, true , false, false, false, false, false, false, false, false, false, true , false, true , true , false, true , false, false, false, false, true , false, false, false, false, false, false, false, false, false, false, false, false, false, true , false, false, false, false, true , false, false, false, false, false, false, true , false, false, false, false, false, true , false, false, false, false, false, false, false, false, true , false, false, false, false, true , false, true , false, true , false, true , false, true , false, false, false, false, false, true , false, false, false, false, false, false, false, false, false, false, false
|false, false, false, false, false, false, false, false, false, false, true , false, true , false, false, false, false, false, false, true , false, false, false, false, false, false, true , true , false, false, false, true , true , false, false, false, false, false, true , false, false, false, false, true , false, true , false, false, false, false, true , false, false, false, false, false, false, false, false, false, true , false, true , true , false, true , false, false, false, false, true , false, false, false, false, false, false, false, false, false, false, false, false, false, true , false, false, false, false, true , false, false, false, false, false, false, true , true , false, false, false, false, true , false, false, false, false, false, false, false, false, true , false, false, false, false, true , false, true , false, true , false, true , false, true , false, false, false, false, false, true , false, false, false, false, false, false, false, false, false, false, false
|false, false, false, false, false, false, false, false, false, false, false, false, true , false, false, false, true , false, false, true , false, false, false, false, true , false, true , true , false, false, false, true , true , false, false, false, false, true , false, false, false, false, false, false, false, true , false, false, false, false, false, false, false, false, false, false, false, false, true , false, false, false, true , false, false, false, false, false, false, false, false, false, true , true , false, true , true , false, false, false, false, false, false, false, true , false, false, false, false, true , false, false, false, true , false, false, true , true , false, false, false, true , false, false, false, false, false, false, false, false, false, false, false, false, false, false, true , false, true , false, true , false, false, false, true , true , false, false, false, false, true , false, false, false, false, true , false, false, false, false, false, false
|false, false, false, false, false, false, false, false, false, false, false, false, true , false, false, false, true , false, false, true , false, false, false, false, true , false, true , true , false, false, false, true , true , false, false, false, false, true , false, false, false, false, false, false, false, true , false, false, false, false, false, false, false, false, false, false, false, false, true , false, false, false, true , false, false, false, false, false, false, false, false, false, true , true , false, true , true , false, false, false, false, false, false, false, true , false, false, false, false, true , false, false, false, true , false, false, true , true , false, false, false, true , false, false, false, false, false, false, false, false, false, false, false, false, false, false, true , false, true , false, true , false, false, false, true , true , false, false, false, false, true , false, false, false, false, true , false, false, false, false, false, false
|false, false, false, false, false, false, false, false, false, false, false, false, true , false, false, false, true , false, false, true , false, false, false, false, true , false, true , true , false, false, false, true , true , false, false, false, false, true , false, false, false, false, false, false, false, true , false, false, false, false, false, false, false, false, false, false, false, false, true , false, false, false, true , false, false, false, false, false, false, false, false, false, true , true , false, true , true , false, false, false, false, false, false, false, false, false, false, false, false, true , false, false, false, true , false, false, true , false, false, false, false, true , false, false, false, false, false, false, false, false, false, false, false, false, false, false, true , false, true , false, true , false, false, false, false, true , false, false, false, false, true , false, false, false, false, true , false, false, false, false, false, false
|true , false, false, false, false, false, false, false, false, false, false, false, false, false, false, false, false, false, false, false, false, false, false, false, false, false, false, false, false, false, false, false, false, false, false, false, false, false, false, false, false, false, false, false, false, true , false, false, false, false, false, false, false, false, false, false, false, false, false, false, false, false, false, false, false, false, false, false, false, false, false, false, false, false, false, false, false, false, false, false, false, false, false, false, false, false, false, false, false, true , false, false, false, false, false, false, false, false, false, false, false, false, false, false, false, false, false, false, false, false, false, false, false, false, false, false, true , false, false, false, false, false, false, false, false, false, false, false, false, false, false, false, false, false, false, false, false, false, false, false, false, false
|true , false, false, false, false, false, false, false, false, false, false, true , true , false, false, false, true , false, false, false, false, false, false, false, true , false, false, true , false, true , false, false, true , false, false, false, false, false, false, false, false, false, false, false, false, true , false, false, false, false, false, false, false, false, false, false, false, true , false, false, false, false, false, false, false, false, false, false, false, true , false, false, false, false, false, false, false, false, false, false, false, false, true , false, false, false, false, false, true , true , false, false, false, false, false, false, true , false, false, false, false, false, false, false, false, false, false, false, false, false, false, false, false, false, false, false, true , false, false, true , true , false, false, false, false, true , false, false, false, false, false, false, false, false, false, true , false, false, false, false, false, false
|true , false, false, false, false, false, false, false, false, false, false, true , true , false, false, false, true , false, false, false, false, false, false, false, true , false, false, true , false, true , false, false, true , true , false, false, false, false, false, false, false, false, false, false, false, true , false, false, false, false, false, true , false, false, false, false, false, true , false, false, false, false, false, false, true , false, false, false, false, true , false, false, false, true , false, false, false, false, false, false, false, false, true , false, false, false, false, false, true , true , false, false, true , false, false, false, true , false, false, false, false, true , false, false, false, false, false, true , false, false, false, false, false, false, false, false, true , false, false, true , true , false, false, true , false, true , false, false, false, false, false, false, false, false, false, true , false, false, false, false, false, false
|false, false, false, false, false, false, false, false, false, false, false, true , true , false, false, false, true , false, false, false, false, false, false, false, true , false, false, true , false, true , false, false, true , true , false, false, false, false, false, false, false, false, false, false, false, true , false, false, false, false, false, true , false, false, false, false, false, true , false, false, false, false, false, false, true , false, false, false, false, true , false, false, false, true , false, false, false, false, false, false, false, false, true , false, false, false, false, false, true , true , false, false, true , false, false, false, true , false, false, false, false, true , false, false, false, false, false, true , false, false, false, false, false, false, false, false, true , false, false, true , true , false, false, true , false, true , false, false, false, false, false, false, false, false, false, true , false, false, false, false, false, false
|false, false, false, false, false, false, false, false, false, false, false, true , true , false, false, false, true , false, false, false, false, false, false, false, false, false, false, true , false, false, false, false, false, true , false, false, false, false, false, false, false, false, false, false, false, false, false, false, false, false, false, true , false, false, false, false, false, false, false, false, false, false, false, false, true , false, false, false, false, false, false, false, false, true , false, false, false, false, false, false, false, false, false, false, false, false, false, false, false, true , false, false, true , false, false, false, false, false, false, false, false, true , false, false, false, false, false, true , false, false, false, false, false, false, false, false, true , false, false, false, false, false, false, true , false, false, false, false, false, false, false, false, false, false, false, true , false, false, false, false, false, false
|false, false, false, false, false, false, false, false, false, false, false, false, true , false, true , false, true , false, false, false, false, false, false, false, false, true , false, false, false, false, false, false, false, false, false, false, false, true , false, false, false, false, false, false, false, false, false, false, true , false, true , true , false, false, false, false, false, false, false, false, true , false, false, false, true , true , false, false, true , false, false, false, false, false, false, false, false, true , false, false, false, false, true , false, false, false, true , false, false, true , false, false, false, false, false, false, false, false, false, false, false, false, false, false, false, false, false, false, false, false, false, true , false, true , false, true , true , false, false, true , true , false, false, false, false, false, true , true , false, false, false, false, false, false, false, false, false, false, false, false, false, false
|false, false, false, false, false, false, false, false, false, false, false, false, true , false, true , false, true , false, false, false, false, false, false, false, false, true , false, false, false, false, false, false, false, false, false, false, false, true , false, false, false, false, false, false, false, false, false, false, true , false, true , true , false, false, false, false, false, false, false, false, true , false, false, false, true , true , false, false, true , false, false, false, false, false, false, false, false, true , false, false, false, false, true , false, false, false, true , false, false, true , false, false, false, false, false, false, false, false, false, false, false, false, false, false, false, false, false, false, false, false, false, true , false, true , false, true , true , false, false, true , true , false, false, false, false, false, true , true , false, false, false, false, false, false, false, false, false, false, false, false, false, false
|false, false, false, false, false, false, false, false, false, false, false, false, true , false, true , false, true , false, false, false, false, false, false, false, false, true , false, false, false, false, false, false, false, false, false, false, false, true , false, false, false, false, false, false, false, false, false, false, true , false, true , true , false, false, false, false, false, false, false, false, true , false, false, false, true , true , false, false, true , false, false, false, false, false, false, false, false, true , false, false, false, false, true , false, false, false, true , false, false, true , false, false, false, false, false, false, false, false, false, false, false, false, false, false, false, false, false, false, false, false, false, true , false, true , false, true , true , false, false, true , true , false, false, false, false, false, true , true , false, false, false, false, false, false, false, false, false, false, false, false, false, false
|false, false, false, false, false, false, false, false, false, false, false, false, true , false, true , false, true , false, false, false, false, false, false, false, false, true , false, false, false, false, false, false, false, false, false, false, false, true , false, false, false, false, false, false, false, false, false, false, true , false, true , true , false, false, false, false, false, false, false, false, true , false, false, false, true , true , false, false, true , false, false, false, false, false, false, false, false, true , false, false, false, false, true , false, false, false, true , false, false, true , false, false, false, false, false, false, false, false, false, false, false, false, false, false, false, false, false, false, false, false, false, true , false, true , false, true , true , false, false, true , true , false, false, false, false, false, true , true , false, false, false, false, false, false, false, false, false, false, false, false, false, false
|false, false, false, false, false, false, false, false, false, false, false, false, false, false, false, false, false, false, false, false, false, false, false, false, false, false, false, false, false, false, false, false, false, false, false, false, false, false, false, false, false, false, false, false, false, false, false, false, false, false, false, false, false, false, false, false, false, false, false, false, false, false, false, false, false, false, false, false, false, false, false, false, false, false, false, false, false, false, false, false, false, false, false, false, false, false, false, false, false, true , false, false, false, false, false, false, false, false, false, false, false, false, false, false, false, false, false, false, false, false, false, false, false, false, false, false, false, false, false, false, false, false, false, false, false, false, false, false, false, false, false, false, false, false, false, false, false, false, false, false, false, false
|false, false, false, false, true , false, false, false, true , false, true , false, false, false, false, false, true , false, true , false, false, false, false, false, false, false, false, false, false, false, false, false, false, false, false, false, false, false, false, false, false, false, false, false, false, false, false, false, false, false, false, false, false, false, false, false, false, false, false, false, false, false, false, false, false, false, false, false, false, false, false, false, false, false, false, false, false, true , false, false, false, false, false, false, false, false, false, false, false, true , true , false, true , false, false, false, false, false, false, false, false, false, false, true , false, false, false, false, false, false, false, false, false, true , false, false, true , false, true , false, false, false, false, false, false, false, true , false, false, false, false, false, false, true , false, false, false, false, false, false, true , false
|false, false, false, false, true , false, false, false, true , false, true , false, false, false, false, false, true , false, true , false, false, false, false, false, false, false, false, false, false, false, false, false, false, false, false, false, false, false, false, false, false, false, false, false, false, false, false, false, false, false, false, false, false, false, false, false, false, false, false, false, false, false, false, false, false, false, false, false, false, false, false, false, false, false, false, false, false, true , false, false, false, false, false, false, false, false, false, false, false, false, true , false, true , false, false, false, false, false, false, false, false, false, false, true , false, false, false, false, false, false, false, false, false, true , false, false, true , false, true , false, false, false, false, false, false, false, true , false, false, false, false, false, false, true , false, false, false, false, false, false, true , false
|false, false, false, false, true , false, false, false, true , false, true , false, false, false, false, false, true , false, true , false, false, false, false, false, false, false, false, false, false, false, false, false, false, false, false, false, false, false, false, false, false, false, false, false, false, false, false, false, false, false, false, false, false, false, false, false, false, false, false, false, false, false, false, false, false, false, false, false, false, false, false, false, false, false, false, false, false, true , false, false, false, false, false, false, false, false, false, false, false, false, true , false, true , false, false, false, false, false, false, false, false, false, false, true , false, false, false, false, false, false, false, false, false, true , false, false, true , false, true , false, false, false, false, false, false, false, true , false, false, false, false, false, false, true , false, false, false, false, false, false, true , false
|false, false, false, false, true , false, false, false, false, false, true , false, false, false, false, false, true , true , true , false, false, false, false, false, false, false, false, false, false, false, false, false, false, false, false, false, false, false, false, false, false, false, false, false, false, false, false, false, false, false, false, false, false, false, false, false, true , false, false, false, false, false, false, false, false, false, false, false, false, false, false, false, false, false, false, false, false, false, false, false, false, false, false, false, false, false, false, true , false, false, true , false, true , false, false, false, false, false, false, false, false, false, false, true , false, false, false, false, false, false, false, false, false, true , false, false, true , false, true , true , false, false, false, false, false, false, true , false, false, false, false, false, false, false, false, false, false, false, false, false, true , false
|false, false, false, false, true , false, false, false, false, false, true , false, false, false, false, false, true , true , true , false, false, false, false, false, false, false, false, false, false, false, false, false, false, false, false, false, false, false, false, false, false, false, false, false, false, false, false, false, false, false, false, false, false, false, false, false, true , false, false, false, false, false, false, false, false, false, false, false, false, false, false, false, false, false, false, false, false, false, false, false, false, false, false, false, false, false, false, true , false, false, true , false, true , false, false, false, false, false, false, false, false, false, false, true , false, false, false, false, false, false, false, false, false, true , false, false, true , false, true , true , false, false, false, false, false, false, true , false, false, false, false, false, false, false, false, false, false, false, false, false, true , false
|false, false, false, false, true , false, false, false, false, false, true , false, false, false, false, false, true , true , true , false, false, false, false, false, false, false, false, false, false, false, false, false, false, false, false, false, false, false, false, false, false, false, false, false, false, false, false, false, false, false, false, false, false, false, false, false, true , false, false, false, false, false, false, false, false, false, false, false, false, false, false, false, false, false, false, false, false, false, false, false, false, false, false, false, false, false, false, true , false, false, true , false, true , false, false, false, false, false, false, false, false, false, false, true , false, false, false, false, false, false, false, false, false, true , false, false, true , false, true , true , false, false, false, false, false, false, true , false, false, false, false, false, false, false, false, false, false, false, false, false, true , false
|false, false, false, false, false, false, false, false, false, false, false, false, false, false, false, false, true , false, false, false, false, false, false, false, false, false, false, false, false, false, false, false, false, false, false, false, false, false, false, false, false, false, false, false, false, false, false, false, false, false, false, false, false, false, false, false, true , false, false, false, false, false, false, false, false, false, false, false, false, false, false, false, false, false, false, false, false, false, false, false, false, false, false, false, false, false, false, false, false, false, false, false, false, false, false, false, false, false, false, false, false, false, false, true , false, false, false, false, false, false, false, false, false, true , false, false, true , false, true , false, false, false, false, false, false, false, false, false, false, false, false, false, false, false, false, false, false, false, false, false, false, false
|false, false, false, false, false, false, false, false, false, false, false, false, false, false, false, false, true , false, false, false, false, false, false, false, false, false, false, false, false, false, false, false, false, false, false, false, false, false, false, false, false, false, true , false, false, false, false, false, false, false, false, false, false, false, true , false, true , true , false, false, false, false, false, false, false, false, false, false, false, false, false, true , false, true , false, false, false, true , false, false, false, true , false, false, true , false, false, false, false, true , false, false, true , false, false, false, false, false, false, false, false, false, false, true , false, false, false, false, false, false, false, false, false, true , false, false, true , false, true , false, false, false, false, false, false, false, true , true , false, false, false, false, false, false, false, false, false, false, false, false, false, false
|false, false, false, false, false, false, false, false, false, true , false, false, false, false, false, false, true , false, false, false, false, false, false, false, false, false, false, false, false, false, false, false, false, false, false, false, false, false, false, false, false, false, true , false, false, false, false, false, false, false, false, false, false, true , true , false, true , true , false, true , false, false, true , false, false, false, false, false, false, false, false, true , false, true , false, false, false, true , false, false, false, true , false, false, true , false, false, false, true , true , false, false, true , false, false, false, false, false, false, false, false, false, false, true , false, false, false, false, false, false, false, true , false, true , false, false, true , false, true , false, false, false, false, false, false, false, true , true , false, false, false, false, false, false, false, false, false, false, false, false, true , false
|false, false, false, false, false, false, false, false, false, true , false, false, false, false, false, false, true , false, false, false, false, false, false, false, false, false, false, false, false, false, false, false, false, false, false, false, false, false, false, false, false, false, true , false, false, false, false, false, false, false, false, false, false, true , true , false, true , true , false, true , false, false, true , false, false, false, false, false, false, false, false, true , false, true , false, false, false, true , false, false, false, true , false, false, true , false, false, false, true , true , false, false, true , false, false, false, false, false, false, false, false, false, false, false, false, false, false, false, false, false, false, true , false, true , false, false, true , false, true , false, false, false, false, false, false, false, true , true , false, false, false, false, false, false, false, false, false, false, false, false, true , false
|false, false, false, false, false, false, false, false, false, true , false, false, true , false, false, false, true , false, false, false, false, false, false, false, false, false, false, false, false, false, false, false, false, false, false, false, false, false, false, false, false, false, false, false, false, false, false, false, false, false, false, false, false, true , false, false, true , true , false, true , false, false, true , false, false, false, false, false, false, false, false, false, false, false, false, false, false, false, false, false, false, true , false, false, true , false, false, false, true , true , false, false, false, false, false, false, false, false, false, false, false, false, false, false, false, false, false, false, false, false, false, true , false, true , false, false, true , false, true , false, false, false, false, false, false, false, true , false, false, false, false, false, false, false, false, false, false, false, false, false, true , false
|false, false, false, false, false, false, false, false, false, true , false, false, true , false, false, false, false, false, false, false, false, false, false, false, false, false, false, false, false, false, false, false, false, false, false, false, false, false, false, false, false, false, false, false, false, false, false, false, false, false, false, false, false, true , false, false, false, true , false, true , false, false, true , false, false, false, false, false, false, false, false, false, false, false, false, false, false, false, false, false, false, false, false, false, false, false, false, false, true , true , false, false, false, false, false, false, false, false, false, false, false, false, false, false, false, false, false, false, false, false, false, true , false, false, false, false, true , false, false, false, false, false, false, false, false, false, false, false, false, false, false, false, false, false, false, false, false, false, false, false, false, false
|false, false, false, false, false, false, false, false, false, true , false, false, false, false, false, false, false, false, false, false, false, false, false, false, false, false, false, false, false, false, false, false, false, false, false, false, false, false, false, false, false, false, false, false, false, false, false, false, false, false, false, false, false, true , false, false, false, true , false, true , false, false, true , false, false, false, false, false, false, false, false, false, false, false, false, false, false, false, false, false, false, false, false, false, false, false, false, false, true , true , false, false, false, false, false, false, false, false, false, false, false, false, false, false, false, false, false, false, false, false, false, true , false, false, false, false, true , false, false, false, false, false, false, false, false, false, false, false, false, false, false, false, false, false, false, false, false, false, false, false, false, false
|false, false, false, false, false, false, false, false, false, true , false, false, false, false, false, false, false, false, false, false, false, false, false, false, false, false, false, false, false, false, false, false, false, false, false, false, false, false, false, false, false, false, false, false, false, false, false, false, false, false, false, false, false, true , false, false, false, true , false, true , false, false, true , false, false, false, false, false, false, false, false, false, false, false, false, false, false, false, false, false, false, false, false, false, false, false, false, false, true , true , false, false, false, false, false, false, false, false, false, false, false, false, false, false, false, false, false, false, false, false, false, true , false, false, false, false, true , false, false, false, false, false, false, false, false, false, false, false, false, false, false, false, false, false, false, false, false, false, false, false, false, false
|false, false, false, false, false, false, false, false, false, true , false, false, false, false, false, false, false, false, false, false, false, false, false, false, false, false, false, false, false, false, false, false, false, false, false, false, false, false, false, false, false, false, false, false, false, false, false, false, false, false, false, false, false, true , false, false, false, true , false, true , false, false, true , false, false, false, false, false, false, false, false, false, false, false, false, false, false, false, false, false, false, false, false, false, false, false, false, false, true , true , false, false, false, false, false, false, false, false, false, false, false, false, false, false, false, false, false, false, false, false, false, true , false, false, false, false, true , false, false, false, false, false, false, false, false, false, false, false, false, false, false, false, false, false, false, false, false, false, false, false, false, false
|];
