% Real instance from AcademiAPP, period 8 (Agosto 2025 - Diciembre 2025).
% Generated by scripts/academiapp/make_instances.py from the CSV
% snapshot. Enrollment caps: room-proxy (the API does not
% publish them); subject resource requirements are inferred from the
% room the campus used. Both are approximations, not campus data.
% Availability repair: none. The schedule the campus ran
% violates the model's hard constraints (teacher clashes 9, rooms double-booked 36, same-cohort overlaps 15, hours taught outside the
% declared availability 11), so
% this instance can be unsatisfiable for reasons present in the data.

diurno = {1, 2, 3, 4, 5, 6, 7, 8, 9, 10, 11, 12, 17, 18, 19, 20, 21, 22, 23, 24, 25, 26, 27, 28, 33, 34, 35, 36, 37, 38, 39, 40, 41, 42, 43, 44, 49, 50, 51, 52, 53, 54, 55, 56, 57, 58, 59, 60, 65, 66, 67, 68, 69, 70, 71, 72, 73, 74, 75, 76, 81, 82, 83, 84, 85, 86, 87, 88, 89, 90, 91, 92};
nocturno = {13, 14, 15, 16, 29, 30, 31, 32, 45, 46, 47, 48, 61, 62, 63, 64, 77, 78, 79, 80, 93, 94, 95, 96};
H = 96;
asignaturas = 363;
docentes = 144;

A=[|2, 6, 1001, 50, 0, 3
|2, 6, 1002, 50, 0, 3
|2, 6, 1003, 50, 0, 3
|2, 6, 1004, 50, 0, 3
|2, 6, 1005, 51, 0, 3
|1, 6, 1008, 50, 0, 4
|1, 6, 1009, 50, 0, 3
|1, 6, 1010, 50, 0, 4
|1, 6, 1011, 50, 0, 3
|1, 6, 1012, 50, 0, 3
|1, 10, 1015, 50, 0, 3
|3, 5, 1017, 50, 0, 3
|3, 7, 1020, 51, 0, 3
|3, 7, 1021, 50, 0, 5
|3, 7, 1021, 51, 0, 3
|3, 7, 1022, 50, 0, 4
|3, 7, 1023, 50, 0, 3
|3, 7, 1023, 51, 0, 3
|3, 7, 1024, 50, 0, 3
|3, 7, 1026, 50, 0, 3
|8, 6, 1029, 50, 0, 3
|12, 3, 1031, 51, 1, 4
|12, 3, 1032, 50, 1, 7
|12, 3, 1033, 51, 1, 3
|12, 3, 1034, 51, 1, 4
|12, 3, 1035, 50, 1, 3
|1, 7, 1059, 52, 0, 3
|1, 7, 1060, 52, 0, 3
|1, 7, 1061, 50, 0, 3
|1, 7, 1062, 51, 0, 3
|1, 7, 1063, 52, 0, 3
|8, 2, 1104, 50, 0, 3
|8, 5, 1105, 51, 1, 2
|8, 5, 1106, 50, 1, 3
|8, 7, 1107, 51, 1, 3
|8, 7, 1108, 51, 1, 3
|8, 7, 1109, 50, 0, 3
|8, 7, 1110, 51, 1, 3
|12, 4, 1111, 51, 1, 4
|12, 4, 1112, 50, 1, 4
|12, 4, 1113, 50, 1, 4
|12, 4, 1114, 5, 1, 4
|12, 4, 1115, 50, 1, 4
|5, 2, 1116, 51, 0, 3
|5, 8, 1117, 50, 0, 3
|5, 8, 1118, 50, 0, 3
|4, 1, 1119, 50, 0, 4
|4, 7, 1120, 50, 0, 4
|4, 7, 1121, 50, 0, 3
|4, 7, 1122, 50, 0, 3
|4, 7, 1123, 50, 0, 6
|4, 7, 1123, 51, 0, 6
|4, 7, 1124, 50, 0, 3
|4, 7, 1125, 50, 0, 3
|11, 3, 1126, 55, 0, 3
|11, 5, 1127, 51, 0, 4
|11, 5, 1128, 51, 0, 2
|11, 5, 1129, 50, 0, 3
|11, 5, 1130, 50, 0, 3
|11, 5, 1131, 50, 0, 3
|11, 5, 1132, 50, 0, 3
|11, 5, 1133, 50, 0, 2
|11, 5, 1133, 51, 0, 2
|11, 5, 1134, 50, 0, 3
|1, 8, 1135, 50, 0, 3
|1, 9, 1136, 50, 0, 3
|1, 2, 1137, 50, 0, 3
|1, 8, 1138, 52, 0, 3
|1, 8, 1138, 53, 0, 3
|1, 8, 1139, 50, 0, 3
|1, 8, 1139, 51, 0, 3
|1, 8, 1140, 50, 0, 1
|1, 8, 1140, 51, 0, 1
|1, 8, 1141, 50, 0, 4
|1, 8, 1141, 51, 0, 4
|3, 3, 1142, 53, 0, 3
|3, 7, 1143, 51, 0, 2
|3, 9, 1144, 50, 0, 4
|3, 9, 1145, 50, 0, 4
|3, 9, 1145, 51, 0, 4
|3, 9, 1146, 50, 0, 3
|3, 9, 1147, 50, 1, 3
|3, 9, 1148, 50, 0, 3
|6, 6, 1149, 50, 0, 3
|6, 7, 1150, 50, 1, 3
|6, 7, 1151, 50, 0, 3
|6, 7, 1152, 50, 1, 3
|6, 7, 1153, 50, 1, 3
|6, 7, 1154, 50, 1, 3
|6, 7, 1155, 50, 1, 3
|6, 8, 1157, 50, 0, 3
|6, 8, 1163, 50, 0, 3
|6, 8, 1164, 50, 0, 3
|6, 8, 1165, 50, 0, 3
|6, 8, 1168, 50, 0, 3
|6, 8, 1169, 50, 0, 3
|13, 1, 1170, 50, 0, 5
|2, 7, 1172, 50, 1, 3
|2, 7, 1173, 50, 1, 3
|2, 7, 1174, 50, 1, 3
|2, 7, 1175, 50, 1, 3
|2, 7, 1176, 50, 0, 3
|2, 7, 1177, 51, 1, 3
|2, 8, 1178, 50, 0, 3
|2, 8, 1179, 50, 0, 3
|2, 8, 1180, 50, 0, 3
|2, 8, 1181, 50, 0, 3
|2, 8, 1182, 50, 0, 3
|2, 8, 1183, 50, 0, 3
|13, 1, 1184, 50, 0, 4
|13, 1, 1185, 50, 0, 6
|13, 1, 1186, 53, 0, 3
|13, 1, 1187, 51, 0, 3
|13, 1, 1188, 50, 0, 3
|2, 9, 1189, 50, 1, 3
|1, 9, 138, 50, 0, 2
|1, 9, 139, 50, 0, 3
|1, 1, 2, 53, 0, 5
|5, 8, 271, 50, 0, 3
|5, 8, 273, 50, 0, 2
|5, 8, 277, 50, 0, 3
|6, 8, 429, 50, 1, 3
|1, 3, 483, 52, 0, 5
|1, 3, 483, 53, 0, 5
|5, 4, 495, 50, 0, 4
|5, 2, 496, 50, 0, 3
|5, 2, 496, 51, 0, 3
|5, 2, 497, 50, 0, 3
|5, 2, 498, 50, 0, 3
|5, 4, 499, 50, 0, 4
|5, 4, 500, 50, 0, 4
|5, 2, 501, 50, 0, 3
|5, 6, 502, 50, 0, 4
|5, 6, 503, 50, 0, 4
|5, 2, 504, 50, 0, 3
|5, 2, 504, 51, 0, 3
|5, 6, 505, 50, 0, 4
|5, 6, 506, 50, 0, 4
|5, 4, 511, 50, 0, 3
|5, 6, 512, 50, 0, 3
|5, 4, 513, 50, 0, 3
|11, 1, 519, 52, 0, 5
|11, 1, 520, 50, 0, 5
|11, 1, 520, 51, 0, 5
|11, 1, 521, 50, 0, 3
|11, 1, 522, 50, 0, 3
|11, 1, 523, 50, 0, 3
|11, 1, 524, 50, 0, 3
|4, 1, 525, 52, 0, 4
|4, 3, 526, 52, 0, 4
|4, 1, 528, 50, 0, 6
|4, 1, 528, 51, 0, 6
|4, 3, 529, 50, 0, 6
|4, 3, 529, 51, 0, 6
|4, 1, 530, 50, 0, 3
|4, 1, 531, 50, 0, 3
|4, 1, 532, 50, 0, 3
|4, 3, 533, 50, 0, 4
|4, 3, 533, 51, 0, 4
|4, 3, 534, 50, 0, 3
|4, 3, 535, 50, 0, 3
|4, 3, 536, 50, 0, 3
|4, 3, 537, 50, 0, 3
|1, 4, 539, 50, 0, 5
|1, 4, 539, 51, 0, 5
|1, 4, 541, 50, 0, 4
|1, 4, 541, 51, 0, 4
|8, 3, 551, 50, 1, 4
|8, 4, 552, 50, 0, 4
|8, 4, 553, 50, 0, 3
|8, 4, 554, 50, 0, 3
|8, 4, 555, 50, 0, 3
|8, 4, 556, 50, 0, 4
|1, 4, 557, 51, 0, 4
|1, 4, 557, 52, 0, 4
|1, 4, 558, 50, 0, 3
|1, 4, 558, 51, 0, 3
|1, 4, 559, 52, 0, 4
|1, 4, 559, 53, 0, 4
|1, 9, 562, 50, 0, 3
|3, 3, 607, 50, 0, 6
|3, 3, 614, 55, 0, 5
|3, 3, 617, 55, 0, 4
|3, 3, 619, 50, 0, 3
|3, 5, 624, 50, 0, 6
|3, 3, 625, 50, 0, 3
|3, 5, 626, 50, 0, 3
|3, 5, 626, 51, 0, 3
|3, 5, 627, 50, 0, 4
|3, 5, 627, 51, 0, 4
|3, 5, 628, 50, 0, 4
|3, 5, 629, 54, 0, 3
|1, 1, 63, 52, 0, 3
|1, 1, 64, 52, 0, 2
|1, 1, 66, 50, 0, 3
|1, 1, 66, 51, 0, 3
|3, 3, 663, 50, 0, 4
|3, 3, 663, 51, 0, 4
|1, 1, 67, 52, 0, 3
|1, 1, 67, 53, 0, 3
|1, 1, 69, 50, 0, 2
|2, 9, 691, 50, 1, 3
|2, 9, 692, 52, 1, 3
|2, 9, 693, 50, 1, 3
|2, 9, 694, 50, 1, 3
|2, 9, 695, 50, 1, 3
|2, 9, 696, 50, 0, 3
|2, 2, 698, 51, 0, 3
|2, 2, 699, 51, 0, 3
|1, 1, 70, 54, 0, 4
|2, 2, 700, 51, 0, 3
|2, 2, 701, 50, 0, 3
|2, 2, 702, 50, 0, 3
|2, 4, 704, 51, 0, 3
|2, 4, 705, 55, 0, 4
|2, 4, 706, 51, 0, 3
|2, 4, 707, 51, 0, 3
|2, 4, 708, 50, 0, 3
|2, 4, 709, 50, 0, 3
|2, 4, 710, 50, 0, 3
|2, 1, 711, 51, 1, 3
|2, 1, 712, 51, 1, 3
|2, 1, 713, 51, 1, 3
|2, 1, 714, 51, 1, 3
|2, 1, 716, 51, 0, 3
|2, 1, 717, 51, 1, 3
|2, 3, 718, 57, 0, 4
|1, 2, 72, 52, 0, 5
|1, 2, 72, 53, 0, 5
|2, 3, 720, 51, 1, 3
|2, 3, 721, 51, 1, 3
|2, 3, 722, 50, 1, 3
|2, 3, 723, 50, 1, 3
|2, 3, 724, 51, 1, 3
|6, 3, 725, 56, 1, 4
|6, 1, 726, 50, 1, 3
|6, 1, 727, 50, 1, 3
|6, 3, 728, 50, 1, 3
|1, 2, 73, 53, 0, 4
|6, 1, 730, 50, 0, 3
|6, 3, 731, 50, 0, 3
|6, 3, 732, 50, 0, 3
|6, 3, 733, 50, 1, 3
|6, 3, 734, 50, 1, 3
|6, 1, 735, 50, 1, 3
|6, 1, 736, 50, 1, 3
|6, 3, 737, 50, 1, 3
|6, 1, 738, 51, 1, 3
|6, 4, 739, 54, 0, 4
|1, 2, 74, 52, 0, 3
|1, 2, 74, 53, 0, 3
|6, 2, 741, 50, 0, 3
|6, 2, 742, 50, 0, 3
|6, 2, 743, 50, 0, 3
|6, 4, 744, 50, 0, 3
|6, 4, 745, 50, 0, 3
|6, 4, 746, 50, 0, 3
|6, 2, 747, 50, 0, 3
|6, 2, 748, 50, 0, 3
|6, 4, 749, 50, 0, 3
|6, 4, 750, 50, 0, 3
|1, 2, 76, 51, 0, 4
|6, 9, 769, 50, 1, 3
|6, 9, 771, 50, 1, 3
|6, 9, 773, 51, 1, 3
|6, 9, 774, 50, 0, 3
|6, 9, 778, 50, 1, 3
|6, 9, 782, 50, 1, 3
|1, 2, 786, 51, 0, 5
|1, 2, 786, 52, 0, 5
|1, 4, 787, 51, 0, 3
|1, 4, 787, 52, 0, 3
|8, 2, 789, 50, 0, 5
|8, 3, 791, 50, 1, 3
|8, 3, 792, 50, 1, 4
|8, 3, 793, 50, 1, 3
|8, 3, 793, 51, 1, 3
|8, 1, 794, 50, 1, 5
|8, 1, 795, 50, 1, 2
|8, 1, 796, 50, 1, 2
|8, 1, 797, 50, 1, 3
|8, 1, 797, 51, 1, 3
|8, 1, 798, 50, 1, 3
|8, 1, 798, 51, 1, 3
|8, 2, 799, 50, 0, 5
|1, 3, 80, 52, 0, 3
|1, 3, 80, 53, 0, 3
|8, 2, 801, 50, 0, 4
|8, 2, 802, 50, 0, 3
|8, 2, 802, 51, 0, 3
|1, 3, 81, 51, 0, 4
|1, 3, 82, 54, 0, 5
|1, 3, 83, 52, 0, 4
|8, 6, 836, 50, 0, 3
|1, 3, 84, 50, 0, 3
|12, 1, 855, 51, 1, 2
|12, 1, 857, 51, 1, 2
|12, 1, 858, 51, 1, 5
|12, 1, 859, 50, 0, 3
|1, 5, 878, 50, 0, 4
|1, 5, 879, 51, 0, 3
|1, 5, 881, 52, 0, 3
|1, 5, 882, 52, 0, 3
|1, 5, 883, 51, 0, 4
|3, 5, 890, 54, 0, 4
|1, 2, 923, 54, 0, 3
|2, 5, 930, 51, 1, 3
|1, 5, 936, 50, 0, 4
|8, 2, 937, 50, 0, 3
|8, 3, 939, 51, 0, 3
|8, 4, 940, 50, 0, 4
|8, 5, 941, 51, 1, 3
|8, 5, 943, 51, 1, 3
|8, 6, 946, 50, 0, 3
|8, 6, 948, 50, 0, 3
|8, 6, 949, 50, 0, 3
|12, 1, 950, 52, 1, 3
|12, 2, 951, 51, 1, 5
|12, 2, 952, 52, 1, 3
|12, 2, 953, 50, 0, 3
|12, 2, 954, 50, 1, 3
|12, 2, 955, 50, 1, 3
|8, 5, 957, 50, 1, 3
|8, 6, 959, 50, 0, 3
|4, 5, 960, 50, 0, 3
|4, 5, 961, 50, 0, 4
|4, 5, 962, 50, 0, 4
|4, 5, 962, 51, 0, 4
|4, 5, 963, 50, 0, 3
|4, 5, 964, 50, 0, 3
|4, 5, 964, 51, 0, 3
|4, 5, 965, 50, 0, 4
|4, 5, 965, 51, 0, 4
|6, 2, 966, 55, 0, 3
|12, 1, 967, 50, 1, 3
|6, 4, 968, 50, 0, 3
|6, 5, 969, 55, 0, 4
|6, 5, 970, 50, 1, 3
|6, 5, 971, 50, 1, 3
|6, 5, 972, 50, 0, 3
|6, 5, 973, 50, 1, 3
|11, 3, 974, 53, 0, 4
|6, 5, 975, 50, 1, 3
|6, 5, 976, 50, 1, 3
|11, 3, 978, 50, 0, 4
|11, 3, 979, 50, 0, 3
|11, 3, 980, 50, 0, 5
|6, 6, 981, 53, 0, 4
|11, 3, 982, 50, 0, 4
|6, 6, 985, 50, 0, 3
|6, 6, 986, 50, 0, 3
|6, 6, 987, 50, 0, 3
|6, 6, 988, 50, 0, 3
|6, 6, 990, 50, 0, 3
|2, 2, 991, 56, 0, 3
|2, 2, 992, 50, 0, 3
|2, 3, 993, 50, 0, 3
|2, 5, 994, 56, 0, 4
|2, 5, 995, 51, 1, 3
|2, 5, 996, 50, 1, 3
|2, 5, 997, 50, 1, 3
|2, 5, 998, 50, 1, 3
|2, 5, 999, 50, 1, 3
|];
Da=[{1, 118, 299},
{2, 87},
{3, 344, 362},
{4, 108, 219},
{5, 85, 217, 258},
{6, 36, 240, 272, 287, 315},
{7, 9, 176, 177, 300},
{8, 286},
{10, 69, 312},
{11, 30, 201, 295},
{12, 25, 40},
{13, 65, 114},
{14, 15, 77, 79},
{16, 111},
{17, 18, 187, 188},
{19, 80, 97, 347},
{20, 110, 147},
{21, 38, 103},
{22, 174, 235, 305},
{23, 322},
{24, 223, 237, 314},
{26, 42, 297},
{27},
{28, 68, 74, 75},
{29, 35, 180},
{31, 116, 281, 294, 319},
{32, 33, 76, 194, 279, 296},
{34, 199, 250, 251, 304, 324},
{37, 170, 316},
{39, 249},
{41, 298, 318, 320},
{43, 192, 222, 308},
{44, 184},
{45, 130},
{46, 132, 141},
{47, 113, 193},
{48, 125, 215, 227, 358},
{49},
{50, 160},
{51, 155, 159},
{52, 53, 327, 329},
{54, 161},
{55, 248, 356},
{56, 149, 150, 183, 342},
{57},
{58, 345},
{59},
{60},
{61},
{62, 63},
{64},
{66},
{67},
{70, 71, 262, 288, 291},
{72, 73, 280},
{78},
{81},
{82},
{83, 221, 252},
{84},
{86, 92},
{88, 100, 109, 231, 241, 255},
{89, 93, 175, 260, 337},
{90, 95, 352},
{91, 226, 234},
{94, 233, 354},
{96},
{98, 146, 214, 309, 310},
{99, 104, 264, 353},
{101, 263},
{102, 268},
{105, 256, 359},
{106, 211},
{107},
{112, 306, 325, 355},
{115},
{117, 302},
{119, 135, 136, 138, 139},
{120, 131},
{121},
{122, 340},
{123, 124},
{126, 127, 133},
{128, 134},
{129},
{137},
{140, 336},
{142},
{143, 144, 198},
{145, 148, 346},
{151, 154},
{152, 156, 328},
{153, 330, 332},
{157, 158, 163},
{162, 269, 270},
{164, 208, 321},
{165, 228, 229},
{166, 167},
{168, 210, 239, 293, 311},
{169, 275},
{171, 301},
{172, 313},
{173, 178, 230, 243, 257},
{179},
{181},
{182},
{185},
{186, 191, 197},
{189, 190},
{195, 196},
{200, 283, 284, 289, 290},
{202, 224},
{203, 360},
{204, 225},
{205},
{206, 266},
{207, 307, 338},
{209, 261},
{212, 232, 361},
{213, 238, 363},
{216, 244},
{218},
{220, 259},
{236, 253},
{242, 357},
{245},
{246, 351},
{247, 341},
{254},
{265},
{267, 350},
{271},
{273, 278, 285, 292},
{274, 276, 277},
{282},
{303, 323},
{317},
{326, 348},
{331, 333},
{334},
{335},
{339},
{343},
{349}
];
Ad=[1, 2, 3, 4, 5, 6, 7, 8, 7, 9, 10, 11, 12, 13, 13, 14, 15, 15, 16, 17, 18, 19, 20, 21, 11, 22, 23, 24, 25, 10, 26, 27, 27, 28, 25, 6, 29, 18, 30, 11, 31, 22, 32, 33, 34, 35, 36, 37, 38, 39, 40, 41, 41, 42, 43, 44, 45, 46, 47, 48, 49, 50, 50, 51, 12, 52, 53, 24, 9, 54, 54, 55, 55, 24, 24, 27, 13, 56, 13, 16, 57, 58, 59, 60, 5, 61, 2, 62, 63, 64, 65, 61, 63, 66, 64, 67, 16, 68, 69, 62, 70, 71, 18, 69, 72, 73, 74, 4, 62, 17, 14, 75, 36, 12, 76, 26, 77, 1, 78, 79, 80, 81, 82, 82, 37, 83, 83, 84, 85, 34, 79, 35, 83, 84, 78, 78, 86, 78, 78, 87, 35, 88, 89, 89, 90, 68, 17, 90, 44, 44, 91, 92, 93, 91, 40, 92, 94, 94, 40, 39, 42, 95, 94, 96, 97, 98, 98, 99, 100, 29, 101, 102, 103, 19, 63, 7, 7, 103, 104, 25, 105, 106, 44, 33, 107, 108, 15, 15, 109, 109, 108, 32, 36, 27, 110, 110, 108, 89, 28, 111, 10, 112, 113, 114, 115, 116, 117, 96, 118, 99, 73, 119, 120, 68, 37, 121, 5, 122, 4, 123, 59, 32, 21, 112, 114, 65, 37, 97, 97, 103, 62, 119, 66, 65, 19, 124, 21, 120, 99, 6, 62, 125, 103, 121, 126, 127, 128, 43, 30, 28, 28, 59, 124, 129, 62, 72, 103, 5, 123, 63, 118, 54, 70, 69, 130, 116, 131, 71, 95, 95, 132, 6, 133, 134, 100, 134, 134, 133, 27, 55, 26, 135, 111, 111, 133, 8, 6, 54, 111, 111, 54, 133, 99, 26, 10, 27, 22, 31, 1, 7, 101, 77, 136, 28, 19, 75, 117, 32, 68, 68, 99, 9, 102, 21, 6, 29, 137, 31, 26, 31, 96, 20, 136, 28, 75, 138, 41, 92, 41, 93, 139, 93, 139, 140, 141, 87, 63, 117, 142, 81, 128, 44, 143, 3, 46, 90, 16, 138, 144, 131, 127, 64, 69, 66, 75, 43, 125, 37, 72, 113, 119, 3, 120];
D=[|false, false, false, false, false, false, false, false, false, false, false, false, false, false, false, false, false, false, false, false, false, false, false, false, false, false, false, false, false, false, false, false, false, false, false, false, false, false, false, false, false, false, false, false, false, false, false, false, false, false, false, false, false, false, false, false, false, false, false, false, false, false, false, false, false, false, false, false, false, false, false, false, false, false, false, false, false, false, false, false, false, false, false, false, false, false, false, false, false, false, false, false, false, false, false, false, false, false, false, false, false, false, false, false, false, false, false, false, false, false, false, false, false, false, false, false, false, false, false, false, false, false, false, false, false, false, false, false, false, false, false, false, false, false, false, false, false, false, false, false, false, false, false, false
|false, false, true , false, false, true , false, false, false, false, false, false, false, false, false, false, false, true , false, false, false, false, false, false, false, false, false, false, false, false, false, false, false, false, false, false, true , false, false, true , true , false, false, false, false, false, false, false, false, false, false, false, false, false, true , false, false, false, false, false, false, false, true , false, false, false, true , false, false, false, false, false, false, false, false, false, false, false, false, false, false, true , false, false, false, false, true , false, false, false, false, false, true , false, false, false, true , false, true , false, false, false, false, false, false, false, false, false, false, false, false, false, false, false, false, false, false, false, false, false, false, false, false, false, false, false, false, false, false, false, false, false, true , true , false, false, false, false, true , false, false, false, false, false
|false, false, true , false, false, true , false, false, false, false, false, false, false, false, false, false, false, true , false, false, false, false, false, false, false, false, false, false, false, false, false, false, false, false, false, false, true , false, false, true , true , false, false, false, false, false, false, false, false, false, false, false, false, false, true , false, false, false, false, false, false, false, true , false, false, false, true , false, false, false, false, false, false, false, false, false, false, false, false, false, false, true , false, false, false, false, true , false, false, false, false, false, true , false, false, false, true , false, true , false, false, false, false, false, false, false, false, false, false, false, false, false, false, false, false, false, false, false, false, false, false, false, false, false, false, false, false, false, false, false, false, false, true , true , false, false, false, false, true , false, false, false, false, false
|false, false, true , false, false, true , false, false, true , false, false, false, false, false, false, false, false, true , false, false, false, false, false, false, false, false, false, false, false, false, false, false, false, false, false, false, true , false, false, true , true , false, false, false, true , false, false, false, false, false, false, false, false, false, true , false, false, false, false, true , false, false, true , false, false, false, true , false, false, false, false, false, false, false, false, false, false, false, false, false, false, true , false, false, false, false, true , false, false, true , false, false, true , false, false, false, true , false, true , false, false, false, false, false, false, false, false, false, true , false, false, false, false, false, false, false, false, false, false, false, false, false, false, false, false, false, false, false, false, false, false, false, true , true , false, false, false, false, true , false, false, false, false, false
|false, false, false, false, false, false, false, false, true , false, false, false, false, false, false, false, false, false, false, false, false, false, true , false, false, false, true , false, false, false, false, false, false, false, false, false, true , false, false, false, false, false, true , false, true , false, false, false, false, false, false, false, false, false, false, false, false, false, false, true , false, false, true , false, false, false, false, false, false, false, false, false, false, false, false, false, false, false, false, false, false, true , false, false, false, false, false, false, false, true , false, false, true , false, true , false, true , false, true , false, false, false, false, false, false, false, false, false, true , false, false, false, false, false, false, false, false, false, false, false, false, false, false, false, false, false, false, false, false, false, false, false, true , false, false, false, false, false, true , false, false, false, false, false
|false, false, false, false, false, false, false, false, true , false, false, false, false, false, false, false, false, false, false, false, false, false, true , false, false, false, true , false, false, false, false, false, false, false, false, false, true , false, false, false, false, false, true , false, true , false, false, false, false, false, false, false, false, false, false, false, false, false, false, true , false, false, true , false, false, false, false, false, false, false, false, false, false, false, false, false, false, false, false, false, false, true , false, false, false, false, false, false, false, true , false, false, true , false, true , false, true , false, true , false, false, false, false, false, false, false, false, false, true , false, false, false, false, false, false, false, false, false, false, false, false, false, false, false, false, false, false, false, false, false, false, false, true , false, false, false, false, false, true , false, false, false, false, false
|false, false, false, false, false, false, false, false, false, false, false, false, false, false, false, false, false, false, false, false, false, false, true , false, false, false, true , false, false, false, false, false, false, false, false, false, false, false, false, false, false, false, true , false, false, false, false, false, false, false, false, false, false, false, false, false, false, false, false, false, false, false, true , false, false, false, false, false, false, false, false, false, false, false, false, false, false, false, false, false, false, true , false, false, false, false, false, false, false, false, false, false, false, false, true , false, true , false, false, false, false, false, false, false, false, false, false, false, true , false, false, false, false, false, false, false, false, false, false, false, false, false, false, false, false, false, false, false, false, false, false, false, false, false, false, false, false, false, false, false, false, false, false, false
|false, false, false, false, false, false, false, false, false, false, false, false, false, false, false, false, false, false, false, false, false, false, false, false, false, false, false, false, false, false, false, false, false, false, false, false, false, false, false, false, false, false, false, false, false, false, false, false, false, false, false, false, false, false, false, false, false, false, false, false, false, false, false, false, false, false, false, false, false, false, false, false, false, false, false, false, false, false, false, false, false, false, false, false, false, false, false, false, false, false, false, false, false, false, false, false, false, false, false, false, false, false, false, false, false, false, false, false, false, false, false, false, false, false, false, false, false, false, false, false, false, false, false, false, false, false, false, false, false, false, false, false, false, false, false, false, false, false, false, false, false, false, false, false
|false, false, false, false, false, true , false, false, true , false, false, false, false, true , false, false, false, false, false, false, false, false, false, false, false, false, false, false, false, false, false, false, false, false, false, false, false, false, false, false, false, false, false, true , false, false, false, false, false, false, false, true , false, false, false, true , false, false, false, false, false, false, false, false, false, false, false, false, false, false, false, false, false, false, false, false, false, false, false, false, false, true , false, false, false, false, false, false, false, true , false, false, true , false, false, false, false, false, false, false, false, false, false, false, false, false, false, false, true , false, false, false, false, false, false, false, false, false, true , false, false, false, false, false, false, false, false, false, false, false, false, false, false, false, false, true , false, true , true , false, false, false, false, false
|false, false, false, false, false, true , false, false, true , false, false, false, false, true , false, false, false, false, false, false, false, false, false, true , false, false, true , false, false, false, false, false, false, false, false, false, false, false, false, false, false, false, false, true , false, false, false, false, false, false, false, true , false, false, false, true , false, false, false, false, false, false, true , false, false, false, false, true , false, false, false, false, false, false, true , false, false, false, false, false, false, true , false, false, false, false, false, false, false, true , false, false, true , false, false, false, true , false, false, false, false, false, false, false, false, false, false, false, true , true , false, false, false, false, false, false, false, false, true , false, true , true , false, false, false, false, false, false, false, false, true , false, true , true , false, true , false, true , true , false, false, false, false, false
|false, false, false, false, false, true , false, false, true , false, false, false, false, true , false, false, false, false, false, false, false, false, false, true , false, false, true , false, false, false, false, false, false, false, false, false, false, false, false, false, false, false, false, true , false, false, false, false, false, false, false, true , false, false, false, true , false, false, false, false, false, false, true , false, false, false, false, true , false, false, false, false, false, false, true , false, false, false, false, false, false, true , false, false, false, false, false, false, false, true , false, false, true , false, false, false, true , false, false, false, false, false, false, false, false, false, false, false, true , true , false, false, false, false, false, false, false, false, true , false, true , true , false, false, false, false, false, false, false, false, true , false, true , true , false, true , false, true , true , false, false, false, false, false
|false, false, false, false, false, true , false, false, false, false, false, false, false, false, false, false, false, false, false, false, false, false, false, true , false, false, true , false, false, false, false, false, false, false, false, false, false, false, false, false, false, false, false, true , false, false, false, false, false, false, false, false, false, false, false, true , false, false, false, false, false, false, true , false, false, false, false, true , false, false, false, false, false, false, true , false, false, false, false, false, false, false, false, false, false, false, false, false, false, false, false, false, false, false, false, false, true , false, false, false, false, false, false, false, false, false, false, false, true , true , false, false, false, false, false, false, false, false, false, false, true , true , false, false, false, false, false, false, false, false, true , false, true , true , false, false, false, true , false, false, false, false, false, false
|false, false, true , false, false, false, false, false, false, false, false, false, false, false, false, false, false, true , true , false, false, false, false, false, false, false, true , false, false, false, true , true , false, false, false, false, false, false, false, false, false, false, true , false, false, false, false, false, false, false, false, false, false, false, true , false, false, false, false, false, false, true , true , false, true , false, false, true , false, false, false, true , false, false, false, true , false, false, false, false, false, false, false, false, false, false, false, false, false, false, false, false, false, false, false, false, false, false, true , false, false, false, false, false, false, false, false, false, false, false, false, false, false, false, false, false, false, false, true , false, true , true , false, false, false, false, false, false, false, true , true , false, true , false, false, false, false, false, false, false, false, false, false, false
|false, false, true , false, false, false, false, false, false, false, false, false, false, false, false, false, false, true , true , false, false, false, false, false, false, false, true , false, false, false, true , true , false, false, false, false, false, false, false, false, false, false, true , false, false, false, false, false, false, false, false, false, false, false, true , false, false, false, false, false, false, true , true , false, true , false, false, true , false, false, false, true , false, false, false, true , false, false, false, false, false, false, false, false, false, false, false, false, false, false, false, false, false, false, false, false, false, false, true , false, false, false, false, false, false, false, false, false, false, false, false, false, false, false, false, false, false, false, true , false, true , true , false, false, false, false, false, false, false, true , true , false, true , false, false, false, false, false, false, false, false, false, false, false
|false, false, true , false, false, false, false, false, false, false, false, false, false, false, false, false, false, true , true , false, false, false, false, false, false, false, true , false, false, false, true , true , false, false, false, false, false, false, false, false, false, false, true , false, false, false, false, false, false, false, false, false, false, false, true , false, false, false, false, false, false, true , true , false, true , false, false, true , false, false, false, true , false, false, false, true , false, false, false, false, false, false, false, false, false, false, false, false, false, false, false, false, false, false, false, false, false, false, true , false, false, false, false, false, false, false, false, false, false, false, false, false, false, false, false, false, false, false, true , false, true , true , false, false, false, false, false, false, false, true , true , false, true , false, false, false, false, false, false, false, false, false, false, false
|false, false, false, false, false, false, false, false, false, false, false, false, false, false, false, false, false, false, true , false, false, false, false, false, false, false, true , false, false, false, true , true , false, false, false, false, false, false, false, false, false, false, false, false, false, false, false, false, false, false, false, false, false, false, false, false, false, false, false, false, false, true , false, false, false, false, false, false, false, false, false, false, false, false, false, false, false, false, false, false, false, false, false, false, false, false, false, false, false, false, false, false, false, false, false, false, false, false, true , false, false, false, false, false, false, false, false, false, false, false, false, false, false, false, false, false, false, false, false, false, false, false, false, false, false, false, false, false, false, false, false, false, true , false, false, false, false, false, false, false, false, false, false, false
|false, false, false, false, false, false, false, false, false, false, false, false, false, false, false, false, false, false, false, false, false, false, false, false, false, false, false, false, false, false, false, false, false, false, false, false, false, false, false, false, false, false, false, false, false, false, false, false, false, false, false, false, false, false, false, false, false, false, false, false, false, false, false, false, false, false, false, false, false, false, false, false, false, false, false, false, false, false, false, false, false, false, false, false, false, false, false, false, false, false, false, false, false, false, false, false, false, false, false, false, false, false, false, false, false, false, false, false, false, false, false, false, false, false, false, false, false, false, false, false, false, false, false, false, false, false, false, false, false, false, false, false, false, false, false, false, false, false, false, false, false, false, false, false
|false, false, false, false, false, false, true , true , false, false, false, false, false, true , false, true , false, false, false, false, false, false, false, true , false, true , false, false, false, false, false, false, false, false, false, false, false, false, true , false, false, false, false, false, false, false, false, false, false, false, false, false, false, false, false, false, false, false, false, false, false, false, false, false, true , false, false, false, false, false, false, false, true , false, false, false, false, false, false, false, false, true , false, false, false, false, false, true , false, false, true , true , false, true , true , false, false, false, true , false, false, false, false, false, false, true , true , false, false, false, false, false, false, false, false, false, false, false, false, false, false, false, false, false, false, false, false, false, false, false, false, false, false, false, false, false, false, false, false, false, false, false, false, false
|false, false, false, false, false, false, true , true , false, false, false, false, false, true , false, true , false, false, false, false, false, false, false, true , false, true , false, false, false, false, false, false, false, false, false, false, false, false, true , false, false, false, false, false, false, false, false, false, false, false, false, false, false, false, false, false, false, false, false, false, false, false, false, false, true , false, false, false, false, false, false, false, true , false, false, false, false, false, false, false, false, true , false, false, false, false, false, true , false, false, true , true , false, true , true , false, false, false, true , false, false, false, false, false, false, true , true , false, false, false, false, false, false, false, false, false, false, false, false, false, false, false, false, false, false, false, false, false, false, false, false, false, false, false, false, false, false, false, false, false, false, false, false, false
|false, false, false, false, false, false, true , true , false, false, false, false, false, true , false, true , false, false, false, false, false, false, false, true , false, true , false, false, false, false, false, false, false, false, false, false, false, false, true , false, false, false, true , true , false, false, false, false, false, false, false, false, false, false, false, false, false, false, false, false, false, false, false, false, true , false, false, false, false, false, false, false, true , false, false, false, false, false, false, false, false, true , false, false, false, false, false, true , false, false, true , true , false, true , true , false, false, false, true , false, false, false, false, false, false, true , true , true , false, false, false, false, false, false, false, false, false, false, false, false, false, false, false, false, false, false, false, false, false, false, false, false, false, false, false, false, false, false, false, false, false, false, false, false
|true , false, false, true , false, true , true , true , false, false, false, true , false, false, false, false, false, false, false, false, false, false, false, false, false, false, false, true , false, false, false, false, false, false, false, false, false, false, false, false, false, false, true , true , false, false, false, false, false, false, false, false, false, false, false, false, false, false, true , false, false, false, false, false, false, false, false, false, false, false, false, true , false, false, false, false, false, true , false, false, false, false, false, false, false, false, false, false, false, false, true , true , false, false, false, false, false, false, true , false, false, false, false, false, false, false, false, true , false, false, false, true , false, false, false, false, false, false, false, false, false, false, false, false, false, false, true , false, false, false, false, true , true , false, false, false, false, false, false, false, false, false, false, false
|true , false, false, true , false, true , true , true , false, false, false, true , false, false, false, false, false, false, false, false, false, false, false, false, false, false, false, true , false, false, false, false, false, false, false, false, false, false, false, false, false, false, true , true , false, false, false, false, false, false, false, false, false, false, false, false, false, false, true , false, false, false, false, false, false, false, false, false, false, false, false, true , false, false, false, false, false, true , false, false, false, false, false, false, false, false, false, false, false, false, true , true , false, false, false, false, false, false, true , false, false, false, false, false, false, false, false, true , false, false, false, true , false, false, false, false, false, false, false, false, false, false, false, false, false, false, true , false, false, false, false, true , true , false, false, false, false, false, false, false, false, false, false, false
|true , false, false, true , false, true , true , false, false, false, false, true , false, false, false, false, false, false, false, false, false, false, false, false, false, false, false, true , false, false, false, false, false, false, false, false, false, false, false, false, false, false, false, true , false, false, false, false, false, false, false, false, false, false, false, false, false, false, true , false, false, false, false, false, false, false, false, false, false, false, false, true , false, false, false, false, false, true , false, false, false, false, false, false, false, false, false, false, false, false, true , true , false, false, false, false, false, false, false, false, false, false, false, false, false, false, false, true , false, false, false, true , false, false, false, false, false, false, false, false, false, false, false, false, false, false, true , false, false, false, false, true , true , false, false, false, false, false, false, false, false, false, false, false
|false, false, false, false, false, false, false, false, false, false, false, false, false, false, false, false, false, false, false, false, false, false, false, false, false, false, false, false, false, false, false, false, false, false, false, false, false, false, false, false, false, false, false, false, false, false, false, false, false, false, false, false, false, false, false, false, false, false, false, false, false, false, false, false, false, false, false, false, false, false, false, false, false, false, false, false, false, false, false, false, false, false, false, false, false, false, false, false, false, false, false, false, false, false, false, false, false, false, false, false, false, false, false, false, false, false, false, false, false, false, false, false, false, false, false, false, false, false, false, false, false, false, false, false, false, false, false, false, false, false, false, false, false, false, false, false, false, false, false, false, false, false, false, false
|false, false, false, false, false, false, true , true , false, false, false, false, false, true , false, true , false, false, true , false, false, false, false, false, false, false, false, false, false, false, false, false, false, false, false, false, true , false, true , false, false, false, false, true , false, false, false, false, false, false, false, false, false, false, false, false, false, false, false, false, false, false, false, false, false, false, false, false, false, false, false, false, false, false, true , false, true , true , false, false, false, false, true , false, false, false, false, false, true , false, true , false, false, false, true , false, true , false, false, false, false, false, false, false, false, false, false, false, false, false, false, false, false, false, false, false, false, true , false, false, false, false, false, false, false, false, false, false, false, false, false, false, false, false, false, false, false, false, false, false, false, false, false, false
|true , false, false, true , false, false, true , true , true , false, false, false, false, true , false, true , false, false, true , false, false, false, false, false, true , false, true , false, true , false, false, false, false, false, false, false, true , false, true , false, false, false, false, true , false, false, false, false, true , false, false, false, false, false, false, false, false, false, false, false, false, false, false, true , false, true , false, true , false, false, false, false, false, false, true , false, true , true , false, false, false, false, true , false, false, false, false, false, true , false, true , false, false, false, true , false, true , false, false, false, false, false, false, false, false, false, false, false, false, true , true , false, false, false, false, false, false, true , false, false, false, true , false, false, false, false, false, false, true , false, false, false, false, false, false, false, false, false, false, false, false, false, false, false
|true , false, false, true , false, false, true , true , true , false, false, false, false, true , false, true , false, false, true , false, false, false, false, false, true , false, true , false, true , false, false, false, false, false, false, false, true , false, true , false, false, false, false, true , false, false, false, false, true , false, false, false, false, false, false, false, false, false, false, false, false, false, false, true , false, true , false, true , false, false, false, false, false, false, true , false, true , true , false, false, false, false, true , false, false, false, false, false, true , false, true , false, false, false, true , false, true , false, false, false, false, false, false, false, false, false, false, false, false, true , true , false, false, false, false, false, false, true , false, false, false, true , false, false, false, false, false, false, true , false, false, false, false, false, false, false, false, false, false, false, false, false, false, false
|true , false, false, true , false, false, false, false, true , false, false, false, false, true , false, false, false, false, true , false, false, false, false, false, true , false, true , false, true , false, false, false, false, false, false, false, true , false, false, false, false, false, false, true , false, false, false, false, true , false, false, false, false, false, false, false, false, false, false, false, false, false, false, true , false, true , false, true , false, false, false, false, false, false, true , false, false, false, false, false, false, false, true , false, false, false, false, false, true , false, false, false, false, false, false, false, false, false, false, false, false, false, false, false, false, false, false, false, false, true , true , false, false, false, false, false, false, true , false, false, false, true , false, false, false, false, false, false, true , false, false, false, false, false, false, false, false, false, false, false, false, false, false, false
|false, false, false, false, false, true , false, false, true , false, false, false, false, false, false, false, false, false, true , false, true , true , false, false, false, true , false, false, false, false, false, false, false, false, false, false, false, false, false, false, false, false, false, false, false, false, false, false, false, false, false, false, false, false, false, false, false, false, false, false, false, true , false, true , false, false, false, true , false, true , false, false, false, false, false, false, false, false, false, false, false, false, false, false, false, false, false, false, false, false, false, false, false, false, false, false, false, false, false, true , false, false, false, false, false, false, false, false, false, false, true , true , false, true , true , true , false, false, true , false, false, true , false, false, false, true , false, false, false, false, false, false, true , true , false, false, true , false, false, false, false, false, true , false
|false, false, false, false, false, true , false, false, true , false, false, false, false, false, false, false, false, false, true , false, true , true , false, false, false, true , false, false, false, false, false, false, false, false, false, false, false, false, false, false, false, false, false, false, false, false, false, false, false, false, false, false, false, false, false, false, false, false, false, false, false, true , false, true , false, false, false, true , false, true , false, false, false, false, false, false, false, false, false, false, false, false, false, false, false, false, false, false, false, false, false, false, false, false, false, false, false, false, false, true , false, false, false, false, false, false, false, false, false, false, true , true , false, true , true , true , false, false, true , false, false, true , false, false, false, true , false, false, false, false, false, false, true , true , false, false, true , false, false, false, false, false, true , false
|false, false, false, false, false, true , false, false, true , false, false, false, false, false, false, false, false, false, true , false, true , true , false, false, false, true , false, false, false, false, false, false, false, false, false, false, false, false, false, false, false, false, false, false, false, false, false, false, false, false, false, false, false, false, false, false, false, false, false, false, false, true , false, true , false, false, false, true , false, true , false, false, false, false, false, false, false, false, false, false, false, false, false, false, false, false, false, false, false, false, false, false, false, false, false, false, false, false, false, true , false, false, false, false, false, false, false, false, false, false, true , true , false, true , true , true , false, false, true , false, false, true , false, false, false, true , false, false, false, false, false, false, true , true , false, false, true , false, false, false, false, false, true , false
|false, false, false, false, false, false, false, false, false, false, false, false, false, false, false, false, false, false, false, false, false, true , false, false, false, false, false, false, false, false, false, false, false, false, false, false, false, false, false, false, false, false, false, false, false, false, false, false, false, false, false, false, false, false, false, false, false, false, false, false, false, false, false, false, false, false, false, false, false, false, false, false, false, false, false, false, false, false, false, false, false, false, false, false, false, false, false, false, false, false, false, false, false, false, false, false, false, false, false, true , false, false, false, false, false, false, false, false, false, false, false, false, false, false, false, false, false, false, false, false, false, false, false, false, false, false, false, false, false, false, false, false, false, false, false, false, false, false, false, false, false, false, false, false
|false, false, false, false, false, false, false, false, false, false, false, false, false, false, false, false, false, false, false, false, false, false, false, false, false, false, false, false, false, false, false, false, false, false, false, false, false, false, false, false, false, false, false, false, false, false, false, false, false, false, false, false, false, false, false, false, false, false, false, false, false, false, false, false, false, false, false, false, false, false, false, false, false, false, false, false, false, false, false, false, false, false, false, false, false, false, false, false, false, false, false, false, false, false, false, false, false, false, false, false, false, false, false, false, false, false, false, false, false, false, false, false, false, false, false, false, false, false, false, false, false, false, false, false, false, false, false, false, false, false, false, false, false, false, false, false, false, false, false, false, false, false, false, false
|false, false, false, false, true , false, false, false, false, true , false, false, false, false, true , false, true , false, false, false, false, false, false, false, false, false, true , true , false, false, false, false, false, false, false, true , false, false, false, false, false, false, false, true , false, false, false, false, false, true , false, false, false, true , false, false, false, false, false, false, true , true , false, false, false, false, false, false, false, false, false, false, false, false, false, false, false, false, true , false, false, false, false, true , false, false, false, false, false, true , false, false, false, false, false, true , false, false, false, false, false, false, false, true , true , false, false, false, false, false, true , false, false, false, false, false, false, false, false, true , false, false, false, false, false, false, false, false, false, false, false, false, false, false, false, false, false, false, false, false, false, false, false, false
|false, false, false, false, true , false, false, false, false, true , false, false, false, false, true , false, true , false, false, false, false, false, false, false, false, false, true , true , false, false, false, false, false, false, false, true , false, false, false, false, false, false, false, true , false, false, false, false, false, true , false, false, false, true , false, false, false, false, false, false, true , true , false, false, false, false, false, false, false, false, false, false, false, false, false, false, false, false, true , false, false, false, false, true , false, false, false, false, false, true , false, false, false, false, false, true , false, false, false, false, false, false, false, true , true , false, false, false, false, false, true , false, false, false, false, false, false, false, false, true , false, false, false, false, false, false, false, false, false, false, false, false, false, false, false, false, false, false, false, false, false, false, false, false
|false, false, false, false, true , false, false, false, false, true , false, false, false, false, true , false, true , false, false, false, false, false, false, false, false, false, true , true , false, false, false, false, false, false, false, true , false, false, false, false, false, false, false, true , false, false, false, false, false, true , false, false, false, true , false, false, false, false, false, false, true , true , false, false, false, false, false, false, false, false, false, false, false, false, false, false, false, false, true , false, false, false, false, true , false, false, false, false, true , true , false, false, false, false, false, true , false, false, false, false, false, false, false, true , true , false, false, false, false, false, true , false, false, false, false, false, false, false, false, true , false, false, false, false, false, false, false, false, false, false, false, false, false, false, false, false, false, false, false, false, false, false, false, false
|true , true , false, false, false, false, false, false, false, true , false, true , false, false, true , true , false, false, false, false, false, false, false, false, false, false, false, false, false, false, false, false, false, true , false, false, false, false, false, false, false, false, false, true , false, false, false, false, false, true , false, false, false, true , false, false, false, false, true , false, false, false, true , false, false, false, false, false, true , false, false, true , false, false, false, false, false, true , false, false, false, false, false, true , true , false, false, false, true , true , false, false, false, false, true , true , false, false, false, false, false, false, false, true , true , false, false, false, false, false, true , false, false, false, false, false, false, false, false, true , true , false, true , false, false, false, false, false, false, false, false, false, false, false, false, false, false, false, false, false, false, false, false, false
|true , true , false, false, false, false, false, false, false, true , false, true , false, false, true , true , false, false, false, false, false, false, false, false, false, false, false, false, false, false, false, false, false, true , false, false, false, false, false, false, false, false, false, true , false, false, false, false, false, true , false, false, false, true , false, false, false, false, true , false, false, false, true , false, false, false, false, false, true , false, false, true , false, false, false, false, false, true , false, false, false, false, false, true , true , false, false, false, true , true , false, false, false, false, true , true , false, false, false, false, false, false, false, true , true , false, false, false, false, false, true , false, false, false, false, false, false, false, false, true , true , false, true , false, false, false, false, false, false, false, false, false, false, false, false, false, false, false, false, false, false, false, false, false
|true , true , false, false, false, false, false, false, false, false, false, true , false, false, true , true , false, false, false, false, false, false, false, false, false, false, false, false, false, false, false, false, false, true , false, false, false, false, false, false, false, false, false, false, false, false, false, false, false, true , false, false, false, false, false, false, false, false, true , false, false, false, true , false, false, false, false, false, true , false, false, true , false, false, false, false, false, true , false, false, false, false, false, false, true , false, false, false, false, false, false, false, false, false, true , true , false, false, false, false, false, false, false, false, true , false, false, false, false, false, true , false, false, false, false, false, false, false, false, true , true , false, true , false, false, false, false, false, false, false, false, false, false, false, false, false, false, false, false, false, false, false, false, false
|false, false, false, false, false, false, false, false, false, false, false, false, false, false, false, false, false, false, false, false, false, false, false, false, false, false, false, false, false, false, false, false, false, false, false, false, false, false, false, false, false, false, false, false, false, false, false, false, false, false, false, false, false, false, false, false, false, false, false, false, false, false, false, false, false, false, false, false, false, false, false, false, false, false, false, false, false, false, false, false, false, false, false, false, false, false, false, false, false, false, false, false, false, false, false, false, false, false, false, false, false, false, false, false, false, false, false, false, false, false, false, false, false, false, false, false, false, false, false, false, false, false, false, false, false, false, false, false, false, false, false, false, false, false, false, false, false, false, false, false, false, false, false, false
|false, false, false, false, false, false, false, false, false, false, false, true , false, false, false, true , true , false, false, false, false, false, false, false, false, false, false, false, false, false, false, false, false, false, false, false, false, false, false, true , false, false, false, true , false, false, false, false, false, false, false, false, false, true , false, false, false, false, false, false, false, false, false, false, false, false, false, false, false, false, false, false, false, false, false, false, false, false, false, false, false, false, false, true , false, false, false, false, false, false, false, true , false, true , false, false, false, false, true , false, false, false, true , false, false, true , false, true , false, false, false, false, false, false, false, false, false, false, false, false, false, false, false, false, false, false, false, false, false, false, false, false, false, false, false, false, false, true , false, false, false, false, false, false
|false, false, false, false, true , false, false, false, false, false, false, true , false, false, false, true , true , false, false, false, false, false, false, false, true , true , true , false, false, false, false, false, false, false, false, false, false, true , false, true , false, false, false, true , false, false, false, true , false, false, false, false, true , true , false, false, false, false, false, false, false, true , false, false, false, false, false, false, false, false, false, false, false, false, false, false, false, true , false, false, false, false, false, true , false, false, false, false, false, false, false, true , false, true , false, true , false, false, true , false, false, false, true , false, false, true , false, true , false, false, false, false, false, false, false, false, false, false, false, false, false, false, false, false, false, false, false, false, false, false, false, true , false, false, false, false, false, true , false, true , false, false, false, false
|false, false, false, false, true , false, false, false, false, false, false, true , false, false, false, true , true , false, false, false, false, false, false, false, true , true , true , false, false, false, false, false, false, false, false, false, false, true , false, true , false, false, false, true , false, false, false, true , false, false, false, false, true , true , false, false, false, false, false, false, false, true , false, false, false, false, false, false, false, false, false, false, false, false, false, false, false, true , false, false, false, false, false, true , false, false, false, false, false, false, false, true , false, true , false, true , false, false, true , false, false, false, true , false, false, true , false, true , false, false, false, false, false, false, false, false, false, false, false, false, false, false, false, false, false, false, false, false, false, false, false, true , false, false, false, false, false, true , false, true , false, false, false, false
|false, false, false, false, true , false, false, false, false, false, false, false, false, false, false, true , true , false, false, false, false, false, false, false, true , true , true , false, false, false, false, false, false, false, false, false, false, true , false, false, false, false, false, true , false, false, false, true , false, false, false, false, true , true , false, false, false, false, false, false, false, true , false, false, false, false, false, false, false, false, false, false, false, false, false, false, false, true , false, false, false, false, false, false, false, false, false, false, false, false, false, true , false, false, false, true , false, false, true , false, false, false, true , false, false, false, false, true , false, false, false, false, false, false, false, false, false, false, false, false, false, false, false, false, false, false, false, false, false, false, false, true , false, false, false, false, false, true , false, true , false, false, false, false
|false, true , false, false, false, false, false, false, false, false, false, false, false, false, false, false, false, true , false, true , true , true , false, false, false, false, true , true , false, false, true , false, false, false, false, false, false, false, false, false, false, false, false, false, false, false, false, false, false, false, false, false, false, false, false, false, false, true , true , false, false, true , false, false, false, true , false, true , false, false, true , false, false, false, false, false, false, false, false, false, false, false, false, false, false, false, false, false, false, false, false, false, false, false, false, true , false, false, false, true , false, false, true , false, false, false, false, false, false, false, false, true , false, false, false, false, false, false, true , true , false, false, false, false, false, false, true , false, false, false, false, false, false, true , true , false, false, false, false, false, false, true , false, false
|false, true , false, false, false, false, false, false, false, false, false, false, false, false, false, false, false, true , false, true , true , true , false, false, false, false, true , true , false, false, true , false, false, false, false, false, false, false, false, false, false, false, false, false, false, false, false, false, false, false, false, false, false, false, false, false, false, true , true , false, false, true , false, false, false, true , false, true , false, false, true , false, false, false, false, false, false, false, false, false, false, false, false, false, false, false, false, false, false, false, false, false, false, false, false, true , false, false, false, true , false, false, true , false, false, false, false, false, false, false, false, true , false, false, false, false, false, false, true , true , false, false, false, false, false, false, true , false, false, false, false, false, false, true , true , false, false, false, false, false, false, true , false, false
|false, true , false, false, false, false, false, false, false, false, false, false, false, false, false, false, false, true , false, true , true , true , false, false, false, false, true , true , false, false, true , false, false, false, false, false, false, false, false, false, false, false, false, false, false, false, false, false, false, false, false, false, false, false, false, false, false, true , true , false, false, true , false, false, false, true , false, true , false, false, true , false, false, false, false, false, false, false, false, false, false, false, false, false, false, false, false, false, false, false, false, false, false, false, false, true , false, false, false, true , false, false, true , false, false, false, false, false, false, false, false, true , false, false, false, false, false, false, true , true , false, false, false, false, false, false, true , false, false, false, false, false, false, true , true , false, false, false, false, false, false, true , false, false
|false, false, false, false, false, false, false, false, false, false, false, false, false, false, false, false, false, false, false, true , false, false, false, false, false, false, false, false, false, false, true , false, false, false, false, false, false, false, false, false, false, false, false, false, false, false, false, false, false, false, false, false, false, false, false, false, false, false, false, false, false, false, false, false, false, false, false, false, false, false, false, false, false, false, false, false, false, false, false, false, false, false, false, false, false, false, false, false, false, false, false, false, false, false, false, false, false, false, false, true , false, false, false, false, false, false, false, false, false, false, false, false, false, false, false, false, false, false, false, false, false, false, false, false, false, false, false, false, false, false, false, false, false, false, false, false, false, false, false, false, false, false, false, false
|false, false, false, false, false, false, false, false, false, false, false, false, false, false, false, false, false, false, false, false, false, false, false, false, false, false, false, false, false, false, false, false, false, false, false, false, false, false, false, false, false, false, false, false, false, false, false, false, false, false, false, false, false, false, false, false, false, false, false, false, false, false, false, false, false, false, false, false, false, false, false, false, false, false, false, false, false, false, false, false, false, false, false, false, false, false, false, false, false, false, false, false, false, false, false, false, false, false, false, false, false, false, false, false, false, false, false, false, false, false, false, false, false, false, false, false, false, false, false, false, false, false, false, false, false, false, false, false, false, false, false, false, false, false, false, false, false, false, false, false, false, false, false, false
|false, false, false, false, false, false, true , false, true , false, false, false, true , true , true , false, true , false, false, false, true , false, false, true , false, true , false, true , false, false, false, false, false, true , false, true , true , false, false, false, true , false, true , false, false, true , false, false, false, false, false, false, false, false, true , false, false, false, false, false, false, false, false, false, false, true , false, false, true , false, false, false, true , false, false, false, false, true , false, false, false, false, false, false, false, false, false, false, false, false, true , true , true , false, false, false, false, true , true , false, false, true , false, false, false, false, false, true , false, false, false, false, false, false, false, false, false, false, false, false, false, false, false, false, false, false, false, false, false, false, false, false, false, false, false, false, false, false, false, false, false, false, false, false
|false, false, false, false, false, false, true , false, true , false, false, false, true , true , true , false, true , false, false, false, true , false, false, true , false, true , false, true , false, false, false, false, false, true , false, true , true , false, false, false, true , false, true , false, false, true , false, false, false, false, false, false, false, false, true , false, false, false, false, false, false, false, false, false, false, true , false, false, true , false, false, false, true , false, false, false, false, true , false, false, false, false, false, false, false, false, false, false, false, false, true , true , true , false, false, false, false, true , true , false, false, true , false, false, false, false, false, true , false, false, false, false, false, false, false, false, false, false, false, false, false, false, false, false, false, false, false, false, false, false, false, false, false, false, false, false, false, false, false, false, false, false, false, false
|false, false, false, true , false, false, true , false, true , false, false, false, true , true , true , false, true , false, false, false, true , false, false, true , false, true , false, true , false, false, false, false, false, true , false, true , true , false, false, true , true , false, true , false, false, true , false, false, false, false, false, false, false, false, true , false, false, false, false, false, false, false, false, false, false, true , false, false, true , false, false, false, true , false, false, false, false, true , false, false, false, false, false, false, false, false, false, false, false, false, true , true , true , false, false, false, false, true , true , false, false, true , false, false, false, false, false, true , false, false, false, false, false, false, false, false, false, false, false, false, false, false, false, false, false, false, false, false, false, false, false, false, true , false, false, false, false, false, false, false, false, false, false, false
|true , false, false, true , false, false, true , false, false, true , false, false, true , false, true , true , false, false, false, false, false, false, false, true , false, false, false, true , false, false, false, false, false, true , false, false, true , false, false, true , true , false, true , false, false, true , true , false, false, false, false, false, false, true , false, false, false, false, true , false, false, false, false, false, false, true , false, false, false, false, false, false, false, false, false, false, false, true , false, false, false, false, false, false, false, false, false, false, false, false, true , true , true , false, false, false, false, true , true , false, false, false, true , false, false, false, false, false, false, false, false, false, false, false, false, false, false, false, false, false, false, false, true , false, false, false, false, false, false, false, false, false, true , false, false, false, false, false, false, false, false, false, false, false
|true , false, false, true , false, false, true , false, false, true , false, false, true , false, true , true , false, false, false, false, false, false, false, true , false, false, false, true , false, false, false, false, false, true , false, false, true , false, false, true , true , false, true , false, false, true , true , false, false, false, false, false, false, true , false, false, false, false, true , false, false, false, false, false, false, true , false, false, false, false, false, false, false, false, false, false, false, true , false, false, false, false, false, false, false, false, false, false, false, false, true , true , true , false, false, false, false, true , true , false, false, false, true , false, false, false, false, false, false, false, false, false, false, false, false, false, false, false, false, false, false, false, true , false, false, false, false, false, false, false, false, false, true , false, false, false, false, false, false, false, false, false, false, false
|true , false, false, false, false, false, true , false, false, true , false, false, false, false, true , true , false, false, false, false, false, false, false, true , false, false, false, false, false, false, false, false, false, false, false, false, false, false, false, false, true , false, true , false, false, false, true , false, false, false, false, false, false, true , false, false, false, false, true , false, false, false, false, false, false, true , false, false, false, false, false, false, false, false, false, false, false, false, false, false, false, false, false, false, false, false, false, false, false, false, true , false, true , false, false, false, false, false, false, false, false, false, true , false, false, false, false, false, false, false, false, false, false, false, false, false, false, false, false, false, false, false, true , false, false, false, false, false, false, false, false, false, false, false, false, false, false, false, false, false, false, false, false, false
|false, false, false, false, false, false, false, false, false, false, false, false, false, false, false, true , false, false, false, false, false, false, false, false, false, false, false, false, false, false, false, false, false, false, false, false, false, false, false, false, false, false, false, false, false, true , false, false, false, false, false, false, false, false, false, false, false, false, false, false, false, false, false, false, false, false, false, false, false, false, false, false, false, false, false, false, false, false, false, false, false, false, false, false, false, false, false, false, false, false, false, false, false, false, false, false, false, false, false, false, false, false, false, false, false, false, false, false, false, false, false, false, false, false, false, false, false, false, false, false, false, false, false, false, false, false, false, false, false, false, false, false, false, false, false, false, false, false, false, false, false, false, false, false
|false, false, false, false, false, false, true , false, false, false, false, false, false, false, false, true , false, false, false, false, false, false, false, true , false, false, false, false, false, false, false, false, false, false, true , false, false, false, false, false, true , false, false, false, false, true , false, false, false, false, false, false, false, true , false, false, true , false, false, false, false, false, true , false, false, false, false, false, false, false, false, false, false, false, false, false, false, false, false, false, false, false, false, false, false, false, true , false, true , false, true , true , false, false, false, false, false, false, false, false, false, false, true , false, false, false, true , false, false, false, false, false, false, false, false, false, false, false, false, false, false, false, false, false, false, false, false, false, false, false, false, false, false, false, false, false, false, false, false, false, false, false, false, false
|false, false, false, true , true , true , true , false, false, false, false, false, false, false, false, true , false, false, false, false, false, false, false, true , false, false, false, true , false, false, false, false, false, false, true , false, false, false, false, false, true , false, false, false, false, true , false, false, false, false, false, false, false, true , false, false, true , false, false, false, false, false, true , true , false, false, false, true , false, false, false, false, false, false, true , false, false, false, false, false, false, false, false, false, false, false, true , false, true , false, true , true , false, false, false, false, false, false, false, false, false, false, true , false, false, false, true , false, false, false, true , false, false, false, false, false, false, false, false, false, false, true , false, false, false, false, false, false, false, false, false, false, false, false, false, false, false, false, false, false, false, false, false, false
|false, false, false, true , true , true , true , false, false, false, false, false, false, false, false, true , false, false, false, false, false, false, false, true , false, false, false, true , false, false, false, false, false, false, true , false, false, false, false, false, true , false, false, false, false, false, false, false, false, false, false, false, false, true , false, false, true , false, false, false, false, false, true , true , false, false, false, true , false, false, false, false, false, false, true , false, false, false, false, false, false, false, false, false, false, false, true , false, true , false, true , true , false, false, false, false, false, false, false, false, false, false, true , false, false, false, true , false, false, false, true , false, false, false, false, false, false, false, false, false, false, true , false, false, false, false, false, false, false, false, false, false, false, false, false, false, false, false, false, false, false, false, false, false
|false, false, false, true , true , true , true , false, false, false, false, false, false, false, false, true , false, false, false, false, false, false, false, true , false, false, false, true , false, false, false, false, false, false, false, false, false, false, false, false, false, false, false, false, false, false, false, false, false, false, false, false, false, true , false, false, false, false, false, false, false, false, true , true , false, false, false, true , false, false, false, false, false, false, true , false, false, false, false, false, false, false, false, false, false, false, false, false, true , false, false, false, false, false, false, false, false, false, false, false, false, false, true , false, false, false, false, false, false, false, true , false, false, false, false, false, false, false, false, false, false, true , false, false, false, false, false, false, false, false, false, false, false, false, false, false, false, false, false, false, false, false, false, false
|false, false, false, false, true , false, false, false, false, false, true , false, false, false, false, false, false, false, false, false, true , true , false, false, true , true , false, false, false, false, true , false, false, false, false, false, false, false, false, false, false, false, false, false, false, false, false, false, false, false, false, false, false, false, false, false, false, false, true , false, false, false, false, false, false, true , false, true , true , true , false, false, false, false, false, false, false, false, false, false, false, false, false, false, false, false, false, false, false, false, false, false, false, false, false, false, false, false, false, true , false, true , true , false, false, false, false, false, false, false, false, false, true , true , false, true , false, false, false, true , false, false, false, false, false, false, false, true , false, true , false, false, false, true , true , false, false, false, false, false, true , false, false, false
|false, false, false, false, true , false, false, false, false, false, true , false, false, false, false, false, false, false, false, false, true , true , false, false, true , true , false, false, false, false, true , false, false, false, false, false, false, false, false, false, false, false, false, false, false, false, false, false, false, false, false, false, false, false, false, false, false, false, true , false, false, false, false, false, false, true , false, true , true , true , false, false, false, false, false, false, false, false, false, false, false, false, false, false, false, false, false, false, false, false, false, false, false, false, false, false, false, false, false, true , false, true , true , false, false, false, false, false, false, false, false, false, true , true , false, true , false, false, false, true , false, false, false, false, false, false, false, true , false, true , false, false, false, true , true , false, false, false, false, false, true , false, false, false
|false, false, false, false, true , false, false, false, false, false, true , false, false, false, false, false, false, false, false, false, true , true , false, false, true , true , false, false, false, false, true , false, false, false, false, false, false, false, false, false, false, false, false, false, false, false, false, false, false, false, false, false, false, false, false, false, false, false, true , false, false, false, false, false, false, true , false, true , true , true , false, false, false, false, false, false, false, false, false, false, false, false, false, false, false, false, false, false, false, false, false, false, false, false, false, false, false, false, false, true , false, true , true , false, false, false, false, false, false, false, false, false, true , true , false, true , false, false, false, true , false, false, false, false, false, false, false, true , false, true , false, false, false, true , true , false, false, false, false, false, true , false, false, false
|false, false, false, false, false, false, false, false, false, false, true , false, false, false, false, false, false, false, false, false, false, false, false, false, false, false, false, false, false, false, false, false, false, false, false, false, false, false, false, false, false, false, false, false, false, false, false, false, false, false, false, false, false, false, false, false, false, false, false, false, false, false, false, false, false, false, false, false, false, false, false, false, false, false, false, false, false, false, false, false, false, false, false, false, false, false, false, false, false, false, false, false, false, false, false, false, false, false, false, true , false, false, false, false, false, false, false, false, false, false, false, false, false, false, false, false, false, false, false, false, false, false, false, false, false, false, false, false, false, false, false, false, false, false, false, false, false, false, false, false, false, false, false, false
|false, false, false, false, false, false, false, false, false, false, false, false, false, false, false, false, false, false, false, false, false, false, false, false, false, false, false, false, false, false, false, false, false, false, false, false, false, false, false, false, false, false, false, false, false, false, false, false, false, false, false, false, false, false, false, false, false, false, false, false, false, false, false, false, false, false, false, false, false, false, false, false, false, false, false, false, false, false, false, false, false, false, false, false, false, false, false, false, false, false, false, false, false, false, false, false, false, false, false, false, false, false, false, false, false, false, false, false, false, false, false, false, false, false, false, false, false, false, false, false, false, false, false, false, false, false, false, false, false, false, false, false, false, false, false, false, false, false, false, false, false, false, false, false
|false, true , false, false, false, false, false, false, false, false, false, false, false, false, false, false, false, false, false, false, false, false, false, false, false, false, false, false, false, false, false, false, false, false, true , true , true , false, false, true , true , false, false, false, false, false, false, false, false, false, false, false, false, false, false, false, false, false, false, false, false, false, false, false, false, false, false, false, true , false, false, false, false, false, false, false, false, false, true , false, false, false, false, false, false, true , false, false, true , false, false, false, false, true , true , false, false, true , false, false, true , false, false, false, false, false, false, false, false, false, false, false, false, false, false, false, false, true , false, false, false, false, false, false, false, false, false, false, false, false, false, false, true , false, false, false, false, true , false, false, false, false, false, true 
|false, true , false, false, false, false, false, false, false, false, false, false, false, false, false, false, false, false, false, false, false, false, false, false, false, false, false, false, false, false, false, false, false, false, true , true , true , false, false, true , true , false, false, false, false, false, false, false, false, false, false, false, false, false, false, false, false, false, false, false, false, false, false, false, false, false, false, false, true , false, false, false, false, false, false, false, false, false, true , false, false, false, false, false, false, true , false, false, true , false, false, false, false, true , true , false, false, true , false, false, true , false, false, false, false, false, false, false, false, false, false, false, false, false, false, false, false, true , false, false, false, false, false, false, false, false, false, false, false, false, false, false, true , false, false, false, false, true , false, false, false, false, false, true 
|false, true , false, false, false, false, false, false, false, false, false, false, false, false, false, false, false, false, false, false, false, false, false, false, false, false, false, false, false, false, false, false, false, false, true , true , true , false, false, true , true , false, true , false, false, false, false, false, false, false, false, false, false, false, false, false, false, false, false, false, false, false, false, false, false, false, false, false, true , false, false, false, false, false, false, false, false, false, true , false, false, false, false, false, false, true , false, false, true , false, false, false, false, true , true , false, true , true , true , false, true , false, false, false, false, false, false, false, false, false, false, false, false, false, false, false, false, true , false, false, false, false, false, false, false, false, false, false, false, false, false, false, true , false, false, false, false, true , false, false, false, false, false, true 
|false, false, false, false, false, false, false, false, false, false, true , false, true , true , false, false, false, false, false, false, false, false, false, false, false, false, false, false, false, false, false, false, true , false, true , false, true , false, false, false, false, true , true , false, false, false, false, false, false, false, true , false, false, true , false, false, false, false, false, false, false, false, false, false, false, false, false, false, false, false, false, false, false, false, false, false, false, false, true , false, false, false, false, false, false, true , false, false, true , false, false, false, false, false, true , true , true , true , true , false, true , false, false, false, false, false, false, false, false, false, false, false, false, false, false, false, false, false, false, false, false, false, false, false, false, false, false, false, false, false, false, false, false, false, false, false, false, true , false, false, false, false, false, true 
|false, false, false, false, false, false, false, false, false, false, true , false, true , true , false, false, false, false, false, false, false, false, false, false, false, false, false, false, false, false, false, false, true , false, true , false, true , false, false, false, false, true , true , false, false, false, false, false, false, false, true , false, false, true , false, false, false, false, false, false, false, false, false, false, false, false, false, false, false, false, false, false, false, false, false, false, false, false, true , false, false, false, false, false, false, true , false, false, true , false, false, false, false, false, true , true , true , true , true , false, true , false, false, false, false, false, false, false, false, false, false, false, false, false, false, false, false, false, false, false, false, false, false, false, false, false, false, false, false, false, false, false, false, false, false, false, false, true , false, false, false, false, false, true 
|false, false, false, false, false, false, false, false, false, false, true , false, true , true , false, false, false, false, false, false, false, false, false, false, false, false, false, false, false, false, false, false, true , false, true , false, false, false, false, false, false, true , false, false, false, false, false, false, false, false, true , false, false, true , false, false, false, false, false, false, false, false, false, false, false, false, false, false, false, false, false, false, false, false, false, false, false, false, false, false, false, false, false, false, false, true , false, false, false, false, false, false, false, false, false, true , false, false, false, false, true , false, false, false, false, false, false, false, false, false, false, false, false, false, false, false, false, false, false, false, false, false, false, false, false, false, false, false, false, false, false, false, false, false, false, false, false, false, false, false, false, false, false, false
|false, false, false, false, false, false, false, false, false, false, false, false, false, false, false, false, false, false, false, false, false, false, false, false, false, false, false, false, false, false, false, false, false, false, false, false, false, false, false, false, false, false, false, false, false, false, false, false, false, false, false, false, false, false, false, false, false, false, false, false, false, false, false, false, false, false, false, false, false, false, false, false, false, false, false, false, false, false, false, true , false, false, false, false, false, false, false, false, false, false, false, false, false, false, false, false, false, false, false, false, false, false, false, false, false, false, false, false, false, false, false, false, false, false, false, false, false, false, false, false, false, false, false, false, false, false, false, false, false, false, false, false, false, false, false, false, false, false, false, false, false, false, false, false
|false, false, false, false, false, false, false, false, false, false, false, false, true , false, false, false, false, false, true , false, false, false, false, false, false, false, false, false, false, true , false, false, true , false, false, false, false, false, false, false, false, true , false, false, false, false, false, false, false, false, false, false, false, false, false, false, false, false, false, false, false, false, false, false, false, false, false, false, false, false, false, false, false, true , false, false, false, false, false, true , false, false, false, false, false, false, false, false, false, false, false, false, false, false, false, false, true , false, false, false, false, false, false, false, false, false, false, false, false, false, false, false, false, false, false, false, false, true , false, false, false, false, false, false, false, false, false, false, false, false, false, false, true , false, false, false, false, true , false, false, false, false, false, false
|false, false, false, false, false, false, false, false, false, false, false, false, true , false, false, false, false, false, true , false, false, false, false, false, true , false, false, true , false, true , false, false, true , false, false, false, false, false, false, false, true , true , false, false, false, false, false, false, false, false, false, false, false, false, false, false, false, false, false, false, false, false, true , false, false, false, false, true , false, false, false, false, false, true , true , false, false, false, false, true , false, false, false, false, false, false, false, false, false, false, false, false, false, false, false, false, true , false, false, false, false, false, false, false, false, false, false, false, false, true , false, false, false, false, false, false, false, true , false, false, false, true , false, true , false, false, false, false, false, false, true , false, true , false, false, false, false, true , false, false, false, false, false, false
|false, false, false, false, false, false, false, false, false, false, false, false, true , false, false, false, false, false, true , false, false, false, false, false, true , false, false, true , false, true , false, false, true , false, false, false, false, false, false, false, true , true , false, false, false, false, false, false, false, false, false, false, false, false, false, false, false, false, false, false, false, false, true , false, false, false, false, true , false, false, false, false, false, true , true , false, false, false, false, true , false, false, false, false, false, false, false, false, false, false, false, false, false, false, false, false, true , false, false, false, false, false, false, false, false, false, false, false, false, true , false, false, false, false, false, false, false, true , false, false, false, true , false, true , false, false, false, false, false, false, true , false, true , false, false, false, false, true , false, false, false, false, false, false
|false, false, false, false, false, false, false, false, false, false, false, false, false, false, false, false, false, false, true , false, false, false, false, false, true , false, false, true , false, true , false, false, false, false, false, false, false, false, false, false, true , false, false, false, false, false, false, false, false, false, false, false, false, false, false, false, false, false, false, false, false, false, true , false, false, false, false, true , false, false, false, false, false, true , true , false, false, false, false, false, false, false, false, false, false, false, false, false, false, false, false, false, false, false, false, false, false, false, false, false, false, false, false, false, false, false, false, false, false, true , false, false, false, false, false, false, false, false, false, false, false, true , false, true , false, false, false, false, false, false, true , false, false, false, false, false, false, true , false, false, false, false, false, false
|false, false, true , false, false, false, false, false, false, false, true , false, false, false, false, false, false, false, false, true , false, false, false, false, false, false, false, false, false, true , true , true , false, false, false, false, false, false, false, false, false, false, false, false, false, false, false, false, false, false, false, false, false, false, false, false, false, false, false, false, false, true , true , false, true , false, false, false, true , false, false, false, false, false, false, false, false, false, false, false, false, false, false, false, false, false, false, false, false, false, false, false, false, false, false, false, false, false, false, true , false, false, false, false, false, false, false, false, false, false, true , false, true , false, false, false, true , false, false, false, false, false, false, true , false, false, false, true , false, false, true , false, false, false, false, true , false, true , false, false, false, false, false, false
|false, false, true , false, false, false, false, false, false, false, true , false, false, false, false, false, false, false, false, true , false, false, false, false, false, false, false, false, false, true , true , true , false, false, false, false, false, false, false, false, false, false, false, false, false, false, false, false, false, false, false, false, false, false, false, false, false, false, false, false, false, true , true , false, true , false, false, false, true , false, false, false, false, false, false, false, false, false, false, false, false, false, false, false, false, false, false, false, false, false, false, false, false, false, false, false, false, false, false, true , false, false, false, false, false, false, false, false, false, false, true , false, true , false, false, false, true , false, false, false, false, false, false, true , false, false, false, true , false, false, true , false, false, false, false, true , false, true , false, false, false, false, false, false
|false, false, true , false, false, false, false, false, false, false, true , false, false, false, false, false, false, false, false, true , false, false, false, false, false, false, false, false, false, true , true , true , false, false, false, false, false, false, false, false, false, false, false, false, false, false, false, false, false, false, false, false, false, false, false, false, false, false, false, false, false, true , true , false, true , false, false, false, true , false, false, false, false, false, false, false, false, false, false, false, false, false, false, false, false, false, false, false, false, false, false, false, false, false, false, false, false, false, false, true , false, false, false, false, false, false, false, false, false, false, true , false, true , false, false, false, true , false, false, false, false, false, false, true , false, false, false, true , false, false, true , false, false, false, false, true , false, true , false, false, false, false, false, false
|false, false, false, false, false, false, false, false, false, false, true , false, false, false, false, false, false, false, false, false, false, false, false, false, false, false, false, false, false, true , false, false, false, false, false, false, false, false, false, false, false, false, false, false, false, false, false, false, false, false, false, false, false, false, false, false, false, false, false, false, false, false, false, false, false, false, false, false, false, false, false, false, false, false, false, false, false, false, false, false, false, false, false, false, false, false, false, false, false, false, false, false, false, false, false, false, false, false, false, true , false, false, false, false, false, false, false, false, false, false, false, false, false, false, false, false, false, false, false, false, false, false, false, false, false, false, false, false, false, false, false, false, false, false, false, false, false, true , false, false, false, false, false, false
|false, false, false, false, false, false, false, false, false, false, false, false, false, false, false, false, false, false, false, false, false, false, false, false, false, false, false, false, false, false, false, false, false, false, false, false, false, false, false, false, false, false, false, false, false, false, false, false, false, false, false, false, false, false, false, false, false, false, false, false, false, false, false, false, false, false, false, false, false, false, false, false, false, false, false, false, false, false, false, false, false, false, false, false, false, false, false, false, false, false, false, false, false, false, false, false, false, false, false, false, false, false, false, false, false, false, false, false, false, false, false, false, false, false, false, false, false, false, false, false, false, false, false, false, false, false, false, false, false, false, false, false, false, false, false, false, false, false, false, false, false, false, false, false
|false, false, false, false, false, false, false, false, true , false, false, false, true , false, false, false, false, false, false, false, false, false, false, false, false, false, false, false, true , false, false, true , false, false, false, true , false, false, false, false, false, false, false, false, false, false, false, false, false, false, false, false, false, false, false, false, false, false, false, false, false, false, false, false, false, false, false, true , false, false, false, false, false, false, true , false, false, false, false, false, false, false, true , false, false, false, false, false, false, false, false, false, false, false, false, false, false, false, false, true , false, false, false, false, false, false, false, false, false, false, false, false, false, false, false, false, false, false, false, false, false, false, false, false, true , false, false, false, false, false, false, false, false, false, false, false, false, false, false, false, false, false, false, false
|false, false, false, false, false, false, false, false, true , false, false, false, true , false, false, false, false, false, false, false, false, false, false, false, false, false, false, false, true , false, false, true , false, false, false, true , false, false, false, false, false, false, false, false, false, false, false, false, false, false, false, false, false, false, false, false, false, false, false, false, false, false, false, false, false, false, false, true , false, false, false, false, false, false, true , false, false, false, false, false, false, false, true , false, false, false, false, false, false, false, false, false, false, false, false, false, false, false, false, true , false, false, false, false, false, false, false, false, false, false, false, false, false, false, false, false, false, false, false, false, false, false, false, false, true , false, false, false, false, false, false, false, false, false, false, false, false, false, false, false, false, false, false, false
|false, false, false, false, false, false, false, false, true , false, false, false, true , false, false, false, false, false, false, false, false, false, false, false, false, false, false, false, true , false, false, true , false, false, false, true , false, false, false, false, false, false, false, false, false, false, false, false, false, false, false, false, false, false, false, false, false, false, false, false, false, false, false, false, false, false, false, true , false, false, false, false, false, false, true , false, true , false, false, false, false, false, true , false, false, false, false, false, false, false, false, false, false, false, false, false, false, false, false, true , false, false, false, false, false, false, false, false, false, false, false, false, false, false, false, false, false, false, false, false, false, false, false, false, true , false, false, false, false, false, false, false, false, false, false, false, false, false, false, false, false, false, false, false
|false, false, false, false, false, false, false, false, true , false, false, false, true , false, false, false, false, false, false, false, false, false, false, false, false, false, false, false, false, false, false, true , false, false, false, false, false, false, false, false, false, false, false, false, false, false, false, false, false, false, false, false, false, false, false, false, false, false, false, false, false, false, false, false, false, false, false, false, false, false, false, false, false, false, false, false, true , false, false, false, false, false, true , false, false, false, false, false, false, false, false, false, false, false, false, false, false, false, false, true , false, false, false, false, false, false, false, false, false, false, false, false, false, false, false, false, false, false, false, false, false, false, false, false, true , false, false, false, false, false, false, false, false, true , false, false, false, false, false, false, false, false, false, false
|false, false, false, false, false, false, false, false, true , false, false, false, true , false, false, false, false, false, false, false, false, false, false, false, false, false, false, false, false, false, false, true , false, false, false, false, false, false, false, false, false, false, false, false, false, false, false, false, false, false, false, false, false, false, false, false, false, false, false, false, false, false, false, false, false, false, false, false, false, false, false, false, false, false, false, false, true , false, false, false, false, false, true , false, false, false, false, false, false, false, false, false, false, false, false, false, false, false, false, true , false, false, false, false, false, false, false, false, false, false, false, false, false, false, false, false, false, false, false, false, false, false, false, false, true , false, false, false, false, false, false, false, false, true , false, false, false, false, false, false, false, false, false, false
|false, false, false, false, false, false, false, false, true , false, false, false, false, false, false, false, false, false, false, false, false, false, false, false, false, false, false, false, false, false, false, false, false, false, false, false, false, false, false, false, false, false, false, false, false, false, false, false, false, false, false, false, false, false, false, false, false, false, false, false, false, false, false, false, false, false, false, false, false, false, false, false, false, false, false, false, false, false, false, false, false, false, true , false, false, false, false, false, false, false, false, false, false, false, false, false, false, false, false, false, false, false, false, false, false, false, false, false, false, false, false, false, false, false, false, false, false, false, false, false, false, false, false, false, true , false, false, false, false, false, false, false, false, true , false, false, false, false, false, false, false, false, false, false
|false, false, false, false, false, false, false, false, false, false, false, false, false, false, false, false, false, false, false, false, false, false, false, false, false, false, false, false, false, false, false, false, false, false, false, false, true , false, false, false, false, false, false, false, false, false, false, false, false, false, false, false, false, false, false, false, false, false, false, false, false, false, false, false, false, false, false, false, false, false, false, false, false, false, false, false, false, false, false, false, false, false, false, false, false, false, false, false, false, false, false, false, false, false, false, false, false, false, false, false, false, false, false, false, false, false, false, false, false, false, false, false, false, false, false, false, false, false, false, false, false, false, false, false, true , false, false, false, false, false, false, false, false, false, false, false, false, false, false, false, false, false, false, false
|true , false, false, false, false, false, false, false, false, false, false, false, false, false, false, false, false, false, false, false, false, false, false, false, false, false, false, false, true , false, true , true , false, false, false, false, true , false, false, false, false, false, false, false, false, false, false, false, false, false, false, false, false, false, false, false, false, false, false, false, false, true , true , false, false, false, false, false, false, false, false, false, false, false, false, false, false, false, false, false, true , false, false, false, false, false, false, false, false, false, false, false, false, false, false, false, false, false, false, false, false, false, false, false, false, false, false, false, false, false, false, false, false, false, false, true , false, false, false, false, false, false, false, false, true , false, false, false, false, false, false, false, false, false, false, false, false, false, false, false, false, false, false, false
|true , false, false, false, false, true , false, false, false, false, false, false, false, false, false, false, false, false, false, false, false, false, false, false, false, false, false, false, true , false, true , true , false, false, false, false, true , false, false, false, false, false, false, false, false, false, false, false, false, false, false, false, false, false, false, false, false, false, false, false, true , true , true , false, false, false, false, false, false, true , true , false, false, false, false, false, false, false, false, false, true , false, false, false, false, false, false, false, false, false, false, false, false, false, false, false, false, false, false, false, false, false, false, false, false, false, false, false, false, false, false, false, false, true , false, true , true , false, false, false, false, false, false, false, true , false, false, false, false, false, false, false, true , false, false, false, false, false, false, false, false, false, false, false
|true , false, false, false, false, true , false, false, false, false, false, false, false, false, false, false, false, false, false, false, false, false, false, false, false, false, false, false, true , false, true , true , false, false, false, false, true , false, false, false, false, false, false, false, false, false, false, false, false, false, false, false, false, false, false, false, false, false, false, false, true , true , true , false, false, false, false, false, false, true , true , false, false, false, false, false, false, false, false, false, true , false, false, false, false, false, false, false, false, false, false, false, false, false, false, false, false, false, false, false, false, false, false, false, false, false, false, false, false, false, false, false, false, true , false, true , true , false, false, false, false, false, false, false, true , false, false, false, false, false, false, false, true , false, false, false, false, false, false, false, false, false, false, false
|true , false, false, false, false, true , false, false, false, false, false, false, false, false, false, false, false, false, false, true , false, false, false, false, false, false, false, false, false, false, false, false, false, false, false, false, true , false, false, false, false, false, false, false, false, false, false, false, false, false, false, false, false, false, false, false, false, false, false, false, true , false, true , false, false, false, false, false, false, true , true , false, false, false, false, false, false, false, false, false, true , false, false, false, false, false, false, false, false, false, false, false, false, false, false, false, false, false, false, false, false, false, false, false, false, false, false, false, false, false, false, false, false, true , false, false, true , false, false, false, false, false, false, false, true , false, false, false, false, false, false, false, true , false, false, false, false, false, false, false, false, false, false, false
|false, false, false, false, false, false, false, false, false, false, false, false, false, false, false, false, false, false, false, true , false, false, false, false, false, false, false, false, false, false, false, false, false, false, false, false, true , false, false, false, false, false, false, false, false, false, false, false, false, false, false, false, false, false, false, false, false, false, false, false, false, true , true , false, false, false, false, false, false, false, false, false, false, false, false, false, false, false, false, false, true , false, false, false, false, false, false, false, false, false, false, false, false, false, false, false, false, false, false, false, false, false, false, false, false, false, false, false, false, false, false, false, false, true , false, false, true , false, false, false, false, false, false, false, true , false, false, false, false, false, false, false, false, false, false, false, false, false, false, false, false, false, false, false
|false, false, false, false, false, false, false, false, false, false, false, false, false, false, false, false, false, false, false, true , false, false, false, false, false, false, false, false, false, false, false, false, false, false, false, false, true , false, false, false, false, false, false, false, false, false, false, false, false, false, false, false, false, false, false, false, false, false, false, false, false, true , true , false, false, false, false, false, false, false, false, false, false, false, false, false, false, false, false, false, true , false, false, false, false, false, false, false, false, false, false, false, false, false, false, false, false, false, false, false, false, false, false, false, false, false, false, false, false, false, false, false, false, true , false, false, true , false, false, false, false, false, false, false, true , false, false, false, false, false, false, false, false, false, false, false, false, false, false, false, false, false, false, false
|false, false, false, false, false, false, false, false, false, false, false, false, false, false, false, false, false, false, false, false, false, false, false, false, false, false, false, false, false, false, false, false, false, false, false, false, true , false, false, false, false, false, false, false, false, false, false, false, false, false, false, false, false, false, false, false, false, false, false, false, false, true , true , false, false, false, false, false, false, false, false, false, false, false, false, false, false, false, false, false, true , false, false, false, false, false, false, false, false, false, false, false, false, false, false, false, false, false, false, false, false, false, false, false, false, false, false, false, false, false, false, false, false, true , false, false, true , false, false, false, false, false, false, false, true , false, false, false, false, false, false, false, false, false, false, false, false, false, false, false, false, false, false, false
|false, false, false, false, false, false, false, false, false, false, false, false, false, false, false, false, false, false, false, false, false, false, false, false, false, false, false, false, false, false, false, false, false, false, false, false, false, false, false, false, false, false, false, false, false, false, false, false, false, false, false, false, false, false, false, false, false, false, false, false, false, false, false, false, false, false, false, false, false, false, false, false, false, false, false, false, false, false, false, false, false, false, false, false, false, false, false, false, false, false, false, false, false, false, false, false, false, false, false, false, false, false, false, false, false, false, false, false, false, false, false, false, false, false, false, false, false, false, false, false, false, false, false, false, true , false, false, false, false, false, false, false, false, false, false, false, false, false, false, false, false, false, false, false
|];
