% Real instance from AcademiAPP, period 8 (Agosto 2025 - Diciembre 2025).
% Generated by scripts/academiapp/make_instances.py from the CSV
% snapshot. Enrollment caps: room-proxy (the API does not
% publish them); subject resource requirements are inferred from the
% room the campus used. Both are approximations, not campus data.
% Availability repair: none. The schedule the campus ran
% violates the model's hard constraints (teacher clashes 11, rooms double-booked 38, same-cohort overlaps 17, hours taught outside the
% declared availability 9), so
% this instance can be unsatisfiable for reasons present in the data.

Recursos=[Coliseo, LabAlimentos, LabElectronica, LabFisica, Ninguno, PlantaAlimentos, SalaSistemas];
sede=30;
salones=30;
Sc=[25,36,36,42,42,44,37,38,25,53,58,54,55,62,30,40,47,46,39,28,30,30,60,25,25,25,60,30,54,62];
Sr=[PlantaAlimentos, Ninguno, Ninguno, Ninguno, Ninguno, Ninguno, Ninguno, Ninguno, Ninguno, Ninguno, Ninguno, Ninguno, Ninguno, Ninguno, Ninguno, Ninguno, Ninguno, Ninguno, Ninguno, SalaSistemas, SalaSistemas, SalaSistemas, Coliseo, LabAlimentos, LabElectronica, LabFisica, Ninguno, Ninguno, SalaSistemas, SalaSistemas];
N=96;
ini=1;
fin=363;
Asig=363;
Ar=[SalaSistemas,Ninguno,Ninguno,Ninguno,SalaSistemas,Ninguno,Ninguno,Ninguno,SalaSistemas,Ninguno,SalaSistemas,Ninguno,Ninguno,Ninguno,Ninguno,Ninguno,Ninguno,LabAlimentos,Ninguno,Ninguno,Ninguno,Ninguno,LabElectronica,Ninguno,Ninguno,Ninguno,Ninguno,SalaSistemas,SalaSistemas,SalaSistemas,SalaSistemas,Ninguno,Ninguno,Ninguno,SalaSistemas,Ninguno,Ninguno,Ninguno,Ninguno,Ninguno,LabElectronica,Ninguno,Ninguno,Ninguno,Ninguno,Ninguno,Coliseo,Ninguno,Ninguno,Ninguno,Ninguno,Ninguno,Ninguno,Ninguno,SalaSistemas,Ninguno,Coliseo,Ninguno,Ninguno,Ninguno,Ninguno,Ninguno,Ninguno,Ninguno,Ninguno,SalaSistemas,Ninguno,SalaSistemas,SalaSistemas,SalaSistemas,SalaSistemas,Ninguno,Ninguno,SalaSistemas,SalaSistemas,Ninguno,LabAlimentos,SalaSistemas,Ninguno,LabAlimentos,Ninguno,Ninguno,Ninguno,Ninguno,SalaSistemas,Ninguno,Ninguno,SalaSistemas,SalaSistemas,Ninguno,Ninguno,Ninguno,SalaSistemas,Ninguno,Ninguno,Ninguno,LabElectronica,Ninguno,Ninguno,SalaSistemas,Ninguno,Ninguno,Ninguno,Ninguno,Ninguno,Ninguno,Ninguno,Ninguno,Ninguno,Ninguno,Ninguno,Ninguno,Coliseo,Ninguno,SalaSistemas,Ninguno,SalaSistemas,SalaSistemas,Ninguno,Ninguno,Ninguno,Ninguno,LabElectronica,LabElectronica,Ninguno,Ninguno,Ninguno,Ninguno,Ninguno,Ninguno,Ninguno,Ninguno,Ninguno,Ninguno,Ninguno,Ninguno,Ninguno,Ninguno,Ninguno,Ninguno,Ninguno,Ninguno,LabAlimentos,LabAlimentos,Ninguno,Ninguno,Ninguno,Ninguno,Ninguno,Ninguno,Ninguno,Ninguno,Ninguno,Ninguno,Ninguno,Ninguno,Ninguno,Ninguno,Ninguno,Ninguno,Ninguno,Ninguno,Ninguno,SalaSistemas,Ninguno,SalaSistemas,SalaSistemas,Ninguno,Ninguno,Ninguno,SalaSistemas,SalaSistemas,Ninguno,Ninguno,Ninguno,SalaSistemas,SalaSistemas,Ninguno,Ninguno,SalaSistemas,LabElectronica,Ninguno,Ninguno,Ninguno,Ninguno,Ninguno,LabAlimentos,LabAlimentos,LabAlimentos,LabAlimentos,Ninguno,SalaSistemas,Coliseo,SalaSistemas,SalaSistemas,SalaSistemas,Ninguno,LabAlimentos,SalaSistemas,SalaSistemas,SalaSistemas,Ninguno,SalaSistemas,SalaSistemas,Ninguno,Ninguno,Ninguno,Ninguno,Ninguno,SalaSistemas,Ninguno,Ninguno,Ninguno,Ninguno,SalaSistemas,Ninguno,SalaSistemas,SalaSistemas,Ninguno,Ninguno,Ninguno,Ninguno,Ninguno,Ninguno,SalaSistemas,Ninguno,SalaSistemas,SalaSistemas,Ninguno,Ninguno,SalaSistemas,Ninguno,Ninguno,SalaSistemas,SalaSistemas,Ninguno,Ninguno,Ninguno,Ninguno,SalaSistemas,Ninguno,Ninguno,Ninguno,Ninguno,Ninguno,Ninguno,Ninguno,Ninguno,SalaSistemas,SalaSistemas,SalaSistemas,Ninguno,Ninguno,Ninguno,Ninguno,Ninguno,Ninguno,Ninguno,Ninguno,Ninguno,Ninguno,SalaSistemas,Ninguno,SalaSistemas,Ninguno,Ninguno,Ninguno,SalaSistemas,SalaSistemas,SalaSistemas,SalaSistemas,SalaSistemas,Ninguno,Ninguno,Ninguno,SalaSistemas,SalaSistemas,Ninguno,Ninguno,Ninguno,Ninguno,SalaSistemas,SalaSistemas,SalaSistemas,SalaSistemas,SalaSistemas,SalaSistemas,Ninguno,SalaSistemas,SalaSistemas,Ninguno,Ninguno,Ninguno,SalaSistemas,Ninguno,Ninguno,Ninguno,Ninguno,SalaSistemas,Ninguno,SalaSistemas,SalaSistemas,Ninguno,Ninguno,Ninguno,SalaSistemas,Ninguno,SalaSistemas,Ninguno,Ninguno,Ninguno,Ninguno,Ninguno,Ninguno,Ninguno,Ninguno,Ninguno,Ninguno,SalaSistemas,LabElectronica,Ninguno,Ninguno,Ninguno,Ninguno,Ninguno,SalaSistemas,Ninguno,Ninguno,Ninguno,Ninguno,Ninguno,Ninguno,Ninguno,SalaSistemas,Coliseo,Ninguno,SalaSistemas,SalaSistemas,Ninguno,Ninguno,Ninguno,Ninguno,Ninguno,Ninguno,Ninguno,Ninguno,Ninguno,SalaSistemas,Ninguno,Ninguno,Ninguno,Ninguno,Ninguno,Ninguno,Ninguno,Ninguno,Ninguno,Ninguno,Ninguno,Ninguno,Ninguno,Ninguno,Ninguno];
Ae=[28,42,42,30,28,54,58,54,30,55,30,62,46,47,47,30,37,25,46,46,44,55,25,55,55,55,44,30,30,30,28,62,53,53,30,58,55,36,60,54,25,38,38,38,42,36,60,46,53,55,47,54,46,58,62,46,60,36,25,30,47,40,40,42,58,54,55,30,30,30,30,36,36,28,54,58,25,28,42,25,40,40,60,30,62,58,44,30,28,42,40,58,54,44,42,42,25,40,25,28,62,40,37,44,60,44,37,44,55,36,53,36,60,42,62,58,28,54,36,42,36,55,25,25,62,25,25,38,38,36,42,36,38,25,36,36,38,38,36,38,36,38,25,25,36,40,25,37,40,53,47,47,47,47,40,58,36,47,47,53,58,58,36,62,54,30,30,60,58,60,28,62,42,54,54,30,30,55,30,30,25,42,62,53,62,42,25,25,25,25,44,62,60,62,30,30,42,25,54,30,30,46,54,54,30,60,46,60,42,62,42,44,37,42,54,62,28,54,62,37,42,46,60,44,28,42,62,62,55,30,62,42,62,28,28,38,36,36,55,54,53,53,42,62,37,36,40,36,30,30,30,53,30,42,37,47,42,53,36,53,40,62,42,28,40,54,47,62,62,62,30,30,55,60,30,30,30,30,30,30,38,54,30,30,62,54,30,62,54,30,54,55,54,28,62,54,54,54,30,62,30,28,55,54,60,62,54,62,47,53,53,53,53,62,58,55,54,58,30,25,58,58,53,53,40,28,46,46,46,47,47,47,47,54,60,40,30,62,42,55,42,58,36,36,36,36,30,30,25,62,44,36,44,58,42,60,62,60,44,37,62,62,37];
