% Real instance from AcademiAPP, period 9 (Febrero 2026 - Junio 2026).
% Generated by scripts/academiapp/make_instances.py from the CSV
% snapshot. Enrollment caps: room-proxy (the API does not
% publish them); subject resource requirements are inferred from the
% room the campus used. Both are approximations, not campus data.
% Availability repair: none. The schedule the campus ran
% violates the model's hard constraints (teacher clashes 12, rooms double-booked 41, same-cohort overlaps 27, hours taught outside the
% declared availability 17), so
% this instance can be unsatisfiable for reasons present in the data.

Recursos=[Coliseo, LabAlimentos, LabElectronica, LabFisica, Ninguno, PlantaAlimentos, SalaSistemas];
sede=30;
salones=30;
Sc=[25,36,36,42,42,44,37,38,25,53,58,54,55,62,30,40,47,46,39,28,30,30,60,25,25,25,60,30,54,62];
Sr=[PlantaAlimentos, Ninguno, Ninguno, Ninguno, Ninguno, Ninguno, Ninguno, Ninguno, Ninguno, Ninguno, Ninguno, Ninguno, Ninguno, Ninguno, Ninguno, Ninguno, Ninguno, Ninguno, Ninguno, SalaSistemas, SalaSistemas, SalaSistemas, Coliseo, LabAlimentos, LabElectronica, LabFisica, Ninguno, Ninguno, SalaSistemas, SalaSistemas];
N=96;
ini=1;
fin=385;
Asig=385;
Ar=[Ninguno,Ninguno,Ninguno,SalaSistemas,Ninguno,SalaSistemas,Ninguno,Coliseo,Ninguno,LabElectronica,Ninguno,Ninguno,Ninguno,Ninguno,Ninguno,SalaSistemas,Ninguno,Ninguno,Ninguno,Ninguno,Ninguno,Ninguno,Ninguno,Ninguno,Ninguno,Ninguno,Ninguno,Ninguno,Ninguno,Ninguno,Ninguno,Ninguno,Ninguno,Ninguno,Ninguno,SalaSistemas,SalaSistemas,SalaSistemas,SalaSistemas,SalaSistemas,Ninguno,Ninguno,Ninguno,Ninguno,Ninguno,Ninguno,Ninguno,Ninguno,Ninguno,Ninguno,SalaSistemas,SalaSistemas,Ninguno,SalaSistemas,Ninguno,Ninguno,SalaSistemas,Ninguno,SalaSistemas,SalaSistemas,Ninguno,Ninguno,Ninguno,Ninguno,Ninguno,Ninguno,Ninguno,SalaSistemas,Ninguno,Ninguno,Ninguno,Ninguno,Ninguno,Ninguno,Ninguno,Coliseo,Ninguno,Ninguno,SalaSistemas,SalaSistemas,SalaSistemas,SalaSistemas,SalaSistemas,Ninguno,SalaSistemas,Ninguno,Ninguno,Ninguno,SalaSistemas,Ninguno,Ninguno,Ninguno,Ninguno,Ninguno,Ninguno,Ninguno,Ninguno,Ninguno,Ninguno,LabAlimentos,LabElectronica,Ninguno,Ninguno,Ninguno,Ninguno,Ninguno,Ninguno,Ninguno,Ninguno,Ninguno,LabAlimentos,LabAlimentos,Ninguno,Ninguno,Ninguno,SalaSistemas,SalaSistemas,Ninguno,Ninguno,Ninguno,Ninguno,Ninguno,Ninguno,Ninguno,Ninguno,Ninguno,Ninguno,SalaSistemas,Ninguno,Ninguno,Ninguno,Ninguno,SalaSistemas,SalaSistemas,Ninguno,SalaSistemas,Ninguno,Ninguno,Ninguno,Ninguno,Ninguno,SalaSistemas,SalaSistemas,Ninguno,Ninguno,Ninguno,Ninguno,Ninguno,Coliseo,Ninguno,PlantaAlimentos,LabFisica,Ninguno,Ninguno,SalaSistemas,Ninguno,Ninguno,Ninguno,Ninguno,Ninguno,SalaSistemas,Ninguno,Ninguno,Ninguno,SalaSistemas,Ninguno,Ninguno,SalaSistemas,Ninguno,Ninguno,SalaSistemas,SalaSistemas,Ninguno,Ninguno,Ninguno,Ninguno,Ninguno,Ninguno,Ninguno,Ninguno,Ninguno,Ninguno,Ninguno,Ninguno,Ninguno,Ninguno,Ninguno,Ninguno,Ninguno,Ninguno,Ninguno,LabElectronica,Ninguno,Ninguno,Ninguno,Ninguno,Ninguno,Ninguno,Ninguno,Ninguno,SalaSistemas,Ninguno,Ninguno,Ninguno,Ninguno,Ninguno,Ninguno,SalaSistemas,SalaSistemas,SalaSistemas,Ninguno,Ninguno,Ninguno,Ninguno,Ninguno,Ninguno,Ninguno,Ninguno,Ninguno,Ninguno,SalaSistemas,Ninguno,SalaSistemas,SalaSistemas,SalaSistemas,SalaSistemas,SalaSistemas,SalaSistemas,Ninguno,Ninguno,SalaSistemas,SalaSistemas,SalaSistemas,Coliseo,LabElectronica,LabElectronica,Ninguno,SalaSistemas,Ninguno,Ninguno,Ninguno,SalaSistemas,Ninguno,Ninguno,Ninguno,Ninguno,SalaSistemas,Ninguno,SalaSistemas,SalaSistemas,Ninguno,LabAlimentos,Ninguno,Ninguno,Ninguno,LabAlimentos,LabAlimentos,Ninguno,Ninguno,Ninguno,Ninguno,Coliseo,SalaSistemas,SalaSistemas,SalaSistemas,SalaSistemas,SalaSistemas,SalaSistemas,Ninguno,SalaSistemas,Ninguno,Ninguno,SalaSistemas,SalaSistemas,Ninguno,Ninguno,SalaSistemas,SalaSistemas,SalaSistemas,SalaSistemas,Ninguno,Ninguno,Ninguno,Ninguno,SalaSistemas,Ninguno,Ninguno,Ninguno,Ninguno,Ninguno,SalaSistemas,SalaSistemas,SalaSistemas,Ninguno,Ninguno,Ninguno,Ninguno,Ninguno,SalaSistemas,Ninguno,SalaSistemas,Ninguno,Ninguno,Ninguno,Ninguno,Ninguno,Coliseo,Ninguno,SalaSistemas,SalaSistemas,SalaSistemas,Ninguno,Ninguno,SalaSistemas,Ninguno,Ninguno,Ninguno,Ninguno,Ninguno,Ninguno,SalaSistemas,SalaSistemas,SalaSistemas,Ninguno,Ninguno,Ninguno,Ninguno,Ninguno,Ninguno,Ninguno,Ninguno,Ninguno,Ninguno,LabAlimentos,Ninguno,Ninguno,Ninguno,Ninguno,SalaSistemas,SalaSistemas,SalaSistemas,SalaSistemas,Ninguno,Ninguno,Ninguno,Ninguno,Ninguno,Ninguno,Ninguno,Ninguno,LabAlimentos,LabAlimentos,Ninguno,Ninguno,Ninguno,Ninguno,SalaSistemas,Ninguno,Ninguno,Ninguno,SalaSistemas,Ninguno,Ninguno,SalaSistemas,Ninguno,SalaSistemas,LabAlimentos,LabAlimentos,Ninguno,Ninguno,Ninguno,Ninguno,Ninguno,Ninguno,SalaSistemas,Ninguno,Ninguno,Ninguno,Ninguno,SalaSistemas,LabElectronica,Ninguno,SalaSistemas,Coliseo,Ninguno];
Ae=[60,44,40,30,60,30,42,60,54,25,38,38,38,38,38,30,40,58,40,47,47,46,46,60,47,47,40,36,25,36,46,40,42,38,55,30,30,30,30,30,53,46,42,58,44,44,60,36,53,53,30,28,36,28,36,42,62,36,30,54,62,58,36,42,53,37,44,62,53,36,62,53,42,54,36,60,55,40,30,30,28,28,30,54,28,30,54,25,54,42,25,46,47,47,53,42,40,25,25,25,25,36,40,40,38,54,40,42,36,42,25,25,44,58,38,54,54,37,62,62,62,54,42,55,36,55,53,54,54,42,37,30,62,62,47,54,37,38,47,55,25,30,62,54,42,40,30,30,60,30,25,25,40,60,54,37,25,37,37,44,28,62,37,30,30,42,42,54,58,62,54,30,58,58,53,36,53,36,60,36,36,42,54,53,42,58,42,62,58,36,46,25,40,47,47,47,40,55,47,37,54,58,54,58,44,54,58,62,54,62,55,54,37,36,58,62,37,55,55,42,30,55,62,54,28,62,28,28,53,38,28,62,62,60,25,25,62,62,36,38,55,28,38,38,42,30,30,60,30,30,62,25,44,60,58,25,25,55,58,53,55,60,62,30,30,30,28,62,60,30,30,30,30,30,60,46,54,30,30,30,54,55,42,25,28,55,62,37,54,46,28,54,54,60,44,60,62,36,28,44,30,30,36,42,38,55,60,62,30,30,30,58,58,30,36,53,53,53,38,53,28,28,28,36,36,46,47,47,47,47,58,46,36,25,42,25,46,62,30,30,28,28,37,30,30,42,54,58,44,54,25,25,36,55,40,58,62,54,40,54,54,42,55,62,36,62,25,25,55,60,55,42,42,30,28,42,38,53,58,28,25,53,54,60,58];
