% Real instance from AcademiAPP, period 9 (Febrero 2026 - Junio 2026).
% Generated by scripts/academiapp/make_instances.py from the CSV
% snapshot. Enrollment caps: room-proxy (the API does not
% publish them); subject resource requirements are inferred from the
% room the campus used. Both are approximations, not campus data.
% Availability repair: none. The schedule the campus ran
% violates the model's hard constraints (teacher clashes 10, rooms double-booked 38, same-cohort overlaps 24, hours taught outside the
% declared availability 17), so
% this instance can be unsatisfiable for reasons present in the data.

diurno = {1, 2, 3, 4, 5, 6, 7, 8, 9, 10, 11, 12, 17, 18, 19, 20, 21, 22, 23, 24, 25, 26, 27, 28, 33, 34, 35, 36, 37, 38, 39, 40, 41, 42, 43, 44, 49, 50, 51, 52, 53, 54, 55, 56, 57, 58, 59, 60, 65, 66, 67, 68, 69, 70, 71, 72, 73, 74, 75, 76, 81, 82, 83, 84, 85, 86, 87, 88, 89, 90, 91, 92};
nocturno = {13, 14, 15, 16, 29, 30, 31, 32, 45, 46, 47, 48, 61, 62, 63, 64, 77, 78, 79, 80, 93, 94, 95, 96};
H = 96;
asignaturas = 385;
docentes = 152;

A=[|1, 6, 1008, 52, 0, 4
|1, 6, 1009, 50, 0, 3
|1, 6, 1010, 50, 0, 4
|1, 6, 1011, 50, 0, 3
|1, 6, 1012, 52, 0, 3
|1, 10, 1015, 50, 0, 3
|3, 6, 1019, 52, 0, 4
|5, 1, 1030, 51, 0, 2
|12, 3, 1031, 51, 1, 4
|12, 3, 1032, 50, 1, 7
|12, 3, 1033, 51, 1, 3
|12, 3, 1034, 51, 1, 4
|12, 3, 1035, 50, 1, 3
|8, 5, 1036, 50, 0, 3
|8, 5, 1037, 50, 0, 3
|8, 6, 1038, 51, 1, 3
|8, 6, 1039, 51, 1, 4
|8, 6, 1040, 50, 1, 3
|8, 6, 1041, 51, 1, 3
|4, 6, 1042, 50, 0, 4
|4, 6, 1042, 51, 0, 4
|4, 6, 1043, 50, 0, 3
|4, 6, 1043, 51, 0, 3
|4, 6, 1044, 50, 0, 3
|4, 6, 1045, 50, 0, 4
|4, 6, 1045, 51, 0, 4
|4, 6, 1047, 50, 0, 3
|4, 6, 1048, 53, 0, 4
|11, 4, 1049, 52, 0, 4
|11, 4, 1050, 50, 0, 3
|11, 4, 1051, 50, 0, 4
|11, 4, 1052, 50, 0, 3
|11, 4, 1053, 50, 0, 3
|11, 4, 1054, 50, 0, 3
|1, 7, 1059, 52, 0, 3
|1, 7, 1060, 50, 0, 3
|1, 7, 1061, 50, 0, 3
|1, 7, 1062, 51, 0, 3
|1, 7, 1062, 52, 0, 3
|1, 7, 1063, 50, 0, 3
|3, 8, 1066, 50, 0, 5
|3, 8, 1068, 52, 0, 3
|3, 8, 1069, 50, 0, 3
|3, 8, 1070, 50, 0, 3
|6, 6, 1072, 50, 1, 3
|6, 6, 1074, 50, 1, 3
|6, 6, 1075, 50, 1, 3
|6, 6, 1076, 50, 1, 3
|6, 6, 1077, 50, 0, 3
|6, 6, 1078, 50, 0, 3
|6, 7, 1080, 51, 0, 3
|6, 7, 1081, 50, 0, 3
|6, 7, 1082, 50, 0, 3
|6, 7, 1083, 50, 0, 3
|6, 7, 1084, 50, 0, 3
|6, 7, 1085, 50, 0, 3
|2, 2, 1086, 51, 1, 3
|2, 6, 1087, 50, 1, 3
|2, 6, 1088, 50, 0, 3
|2, 6, 1089, 50, 1, 3
|2, 6, 1090, 50, 1, 3
|2, 6, 1091, 53, 1, 4
|2, 6, 1092, 50, 1, 3
|2, 7, 1093, 50, 0, 3
|2, 7, 1094, 50, 0, 3
|2, 7, 1095, 50, 0, 3
|2, 7, 1096, 50, 0, 3
|2, 7, 1097, 50, 0, 3
|2, 7, 1098, 50, 0, 3
|5, 7, 1103, 50, 0, 3
|12, 4, 1111, 51, 0, 4
|12, 4, 1112, 50, 1, 4
|12, 4, 1113, 50, 1, 4
|12, 4, 1114, 50, 1, 4
|12, 4, 1115, 50, 1, 4
|4, 1, 1119, 50, 0, 2
|1, 8, 1135, 52, 0, 3
|1, 2, 1137, 51, 0, 3
|1, 8, 1138, 50, 0, 3
|1, 8, 1139, 50, 0, 3
|1, 8, 1140, 50, 0, 1
|1, 8, 1140, 51, 0, 1
|1, 8, 1141, 50, 0, 4
|6, 8, 1156, 51, 0, 3
|6, 8, 1160, 50, 1, 3
|6, 8, 1162, 50, 1, 3
|12, 5, 1190, 50, 1, 3
|12, 5, 1191, 50, 1, 4
|12, 5, 1192, 50, 1, 4
|12, 5, 1193, 50, 1, 4
|12, 5, 1194, 50, 0, 5
|5, 3, 1195, 50, 0, 3
|4, 4, 1196, 50, 0, 3
|4, 8, 1197, 50, 0, 3
|4, 8, 1198, 50, 0, 3
|4, 8, 1199, 50, 0, 3
|4, 8, 1201, 50, 0, 4
|4, 8, 1202, 50, 0, 3
|4, 8, 1203, 50, 0, 3
|13, 2, 1204, 50, 0, 7
|13, 2, 1205, 50, 0, 7
|13, 2, 1206, 50, 0, 5
|13, 2, 1207, 50, 0, 7
|13, 2, 1208, 52, 0, 4
|11, 6, 1209, 50, 0, 4
|11, 6, 1210, 50, 0, 3
|11, 6, 1211, 50, 0, 9
|11, 6, 1212, 50, 0, 3
|11, 6, 1213, 50, 0, 4
|11, 6, 1214, 50, 0, 3
|3, 8, 1215, 50, 0, 3
|3, 8, 1215, 51, 0, 3
|3, 8, 1216, 50, 0, 3
|3, 10, 1218, 50, 0, 3
|3, 10, 1219, 51, 0, 3
|1, 9, 1220, 50, 0, 3
|1, 9, 1220, 51, 0, 3
|1, 9, 1221, 50, 0, 3
|1, 9, 1222, 51, 0, 3
|1, 9, 1223, 50, 0, 3
|1, 9, 1223, 51, 0, 3
|6, 1, 1224, 52, 0, 3
|6, 4, 1225, 50, 1, 3
|6, 8, 1226, 51, 1, 3
|6, 8, 1227, 50, 1, 3
|6, 8, 1228, 50, 1, 3
|6, 9, 1229, 51, 0, 3
|6, 9, 1230, 51, 0, 3
|6, 9, 1231, 50, 0, 3
|6, 9, 1233, 50, 0, 3
|2, 8, 1234, 50, 1, 3
|2, 8, 1235, 50, 1, 3
|6, 9, 1236, 50, 0, 3
|2, 8, 1237, 50, 0, 3
|2, 8, 1238, 50, 1, 3
|2, 8, 1239, 50, 1, 3
|2, 9, 1240, 50, 0, 3
|8, 5, 1241, 50, 0, 3
|4, 6, 1243, 50, 0, 3
|2, 8, 1244, 51, 1, 3
|2, 9, 1245, 50, 0, 3
|2, 9, 1246, 50, 0, 3
|2, 9, 1247, 50, 0, 3
|2, 9, 1248, 50, 0, 3
|2, 9, 1249, 50, 0, 3
|2, 10, 1250, 50, 1, 3
|6, 9, 1251, 50, 0, 2
|6, 9, 1251, 51, 0, 2
|6, 9, 1251, 52, 0, 2
|6, 9, 1251, 53, 0, 2
|6, 9, 1251, 54, 0, 2
|6, 9, 1251, 55, 0, 2
|3, 10, 1252, 53, 0, 3
|2, 1, 176, 50, 0, 3
|2, 1, 177, 50, 0, 3
|2, 1, 179, 50, 0, 3
|2, 1, 180, 51, 0, 3
|2, 1, 181, 50, 0, 3
|2, 1, 182, 50, 0, 3
|2, 2, 183, 50, 1, 3
|2, 2, 184, 50, 1, 3
|2, 2, 185, 50, 1, 3
|2, 2, 186, 50, 1, 3
|2, 2, 188, 50, 0, 3
|2, 3, 190, 50, 0, 3
|2, 3, 191, 50, 0, 3
|2, 3, 192, 50, 0, 3
|2, 3, 194, 50, 0, 3
|2, 3, 195, 50, 0, 3
|2, 3, 196, 55, 0, 4
|1, 1, 2, 52, 0, 5
|2, 10, 231, 50, 1, 3
|5, 1, 236, 50, 0, 3
|5, 1, 239, 50, 0, 3
|5, 1, 240, 50, 0, 3
|5, 1, 243, 50, 0, 3
|5, 1, 245, 50, 0, 3
|5, 3, 247, 50, 0, 3
|5, 3, 248, 50, 0, 3
|5, 3, 249, 50, 0, 3
|5, 3, 250, 50, 0, 4
|5, 3, 250, 51, 0, 4
|5, 5, 254, 50, 0, 3
|5, 5, 256, 50, 0, 4
|5, 5, 258, 50, 0, 4
|5, 5, 260, 50, 0, 4
|5, 5, 262, 50, 0, 4
|5, 5, 264, 50, 0, 4
|5, 8, 275, 50, 0, 3
|5, 8, 276, 50, 0, 3
|3, 4, 313, 51, 0, 5
|4, 2, 318, 50, 0, 4
|4, 2, 319, 50, 0, 3
|4, 2, 320, 50, 0, 3
|4, 2, 321, 50, 0, 4
|4, 2, 321, 51, 0, 4
|4, 2, 322, 50, 0, 3
|6, 1, 382, 51, 0, 3
|6, 1, 383, 50, 0, 3
|6, 1, 384, 51, 0, 3
|6, 1, 385, 51, 0, 3
|6, 1, 387, 50, 0, 3
|6, 3, 389, 51, 0, 3
|6, 3, 390, 51, 0, 3
|6, 3, 391, 50, 0, 3
|6, 3, 392, 50, 0, 3
|6, 3, 393, 50, 0, 3
|6, 3, 394, 51, 0, 3
|6, 3, 395, 56, 0, 4
|6, 3, 395, 57, 0, 4
|6, 2, 410, 51, 1, 3
|6, 2, 411, 51, 1, 3
|6, 2, 412, 50, 1, 3
|6, 2, 414, 50, 1, 3
|6, 2, 415, 51, 0, 3
|6, 10, 431, 50, 1, 3
|6, 10, 434, 50, 1, 3
|6, 10, 435, 50, 0, 3
|6, 10, 435, 51, 0, 3
|6, 10, 437, 50, 1, 3
|6, 10, 438, 50, 1, 3
|6, 10, 439, 50, 1, 3
|8, 1, 459, 50, 0, 5
|8, 1, 460, 50, 0, 3
|8, 1, 460, 51, 0, 3
|8, 1, 461, 50, 0, 2
|8, 1, 462, 50, 0, 3
|8, 1, 462, 51, 0, 3
|8, 3, 464, 50, 0, 4
|8, 3, 465, 50, 0, 3
|8, 3, 466, 50, 0, 4
|8, 2, 467, 50, 1, 5
|8, 2, 470, 50, 1, 4
|8, 2, 471, 51, 1, 3
|1, 3, 483, 51, 0, 6
|1, 3, 483, 52, 0, 6
|4, 2, 484, 52, 0, 3
|8, 1, 485, 50, 0, 2
|5, 9, 507, 50, 0, 3
|5, 9, 509, 50, 0, 2
|4, 1, 525, 53, 0, 4
|4, 1, 528, 51, 0, 6
|4, 1, 530, 50, 0, 3
|4, 1, 531, 50, 0, 3
|4, 1, 532, 50, 0, 3
|1, 4, 539, 50, 0, 5
|1, 4, 541, 52, 0, 4
|1, 4, 557, 51, 0, 4
|1, 4, 558, 50, 0, 3
|1, 4, 558, 51, 0, 3
|1, 4, 559, 52, 0, 4
|3, 1, 609, 50, 0, 4
|3, 1, 609, 51, 0, 4
|3, 1, 615, 50, 0, 2
|3, 1, 615, 53, 0, 3
|3, 1, 616, 50, 0, 5
|3, 1, 616, 51, 0, 5
|3, 4, 618, 54, 0, 4
|3, 1, 620, 53, 0, 2
|3, 1, 621, 52, 0, 3
|3, 1, 622, 51, 0, 2
|1, 1, 63, 53, 0, 3
|1, 1, 64, 52, 0, 2
|1, 1, 66, 50, 0, 3
|1, 1, 66, 51, 0, 3
|1, 1, 67, 52, 0, 3
|1, 1, 67, 53, 0, 3
|1, 1, 69, 50, 0, 2
|1, 1, 70, 54, 0, 4
|2, 4, 707, 50, 1, 3
|1, 2, 72, 52, 0, 5
|1, 2, 73, 53, 0, 4
|1, 2, 74, 52, 0, 3
|1, 2, 74, 53, 0, 3
|1, 2, 76, 51, 0, 4
|1, 2, 786, 51, 0, 5
|1, 4, 787, 51, 0, 3
|8, 1, 798, 54, 0, 3
|1, 3, 80, 51, 0, 3
|1, 3, 80, 52, 0, 3
|2, 5, 804, 50, 0, 3
|2, 5, 805, 50, 0, 3
|2, 5, 806, 50, 0, 3
|2, 5, 807, 50, 0, 3
|2, 5, 808, 51, 0, 4
|2, 5, 809, 50, 0, 3
|1, 3, 81, 51, 0, 4
|2, 5, 810, 50, 0, 3
|2, 4, 812, 50, 0, 3
|2, 4, 813, 50, 1, 3
|2, 4, 814, 50, 1, 3
|2, 4, 815, 50, 0, 3
|2, 4, 817, 55, 1, 4
|2, 4, 818, 51, 1, 3
|1, 3, 82, 53, 0, 5
|1, 3, 82, 54, 0, 5
|6, 4, 826, 50, 1, 3
|6, 4, 827, 51, 0, 3
|6, 4, 828, 56, 0, 4
|6, 4, 828, 57, 1, 4
|6, 4, 829, 51, 1, 3
|1, 3, 83, 50, 0, 4
|6, 4, 830, 51, 1, 3
|6, 4, 832, 50, 1, 3
|8, 5, 837, 50, 0, 4
|8, 3, 838, 50, 0, 4
|8, 1, 839, 50, 0, 3
|1, 3, 84, 50, 0, 3
|8, 2, 840, 50, 1, 3
|8, 4, 841, 50, 1, 3
|8, 4, 842, 50, 1, 4
|8, 4, 843, 50, 1, 4
|8, 4, 844, 50, 1, 4
|8, 4, 845, 51, 1, 4
|5, 7, 849, 50, 0, 3
|5, 7, 850, 50, 0, 4
|5, 7, 853, 50, 0, 4
|12, 1, 855, 51, 1, 2
|12, 1, 857, 51, 1, 2
|12, 1, 858, 51, 1, 5
|12, 1, 859, 50, 0, 3
|4, 2, 860, 50, 0, 3
|4, 2, 860, 51, 0, 6
|4, 4, 861, 50, 0, 6
|4, 4, 861, 51, 0, 6
|4, 4, 862, 50, 0, 3
|4, 4, 863, 50, 0, 3
|4, 4, 865, 50, 0, 4
|4, 4, 865, 51, 0, 4
|4, 4, 867, 50, 0, 3
|11, 2, 869, 51, 0, 3
|11, 2, 870, 50, 0, 4
|11, 2, 871, 50, 0, 3
|11, 2, 872, 50, 0, 6
|11, 2, 873, 50, 0, 2
|11, 2, 874, 50, 0, 3
|1, 5, 878, 50, 0, 4
|1, 5, 878, 51, 0, 4
|1, 5, 879, 51, 0, 3
|1, 5, 879, 52, 0, 3
|1, 5, 881, 50, 0, 3
|1, 5, 881, 51, 0, 3
|1, 5, 882, 50, 0, 3
|1, 5, 882, 51, 0, 3
|1, 5, 883, 51, 0, 4
|1, 5, 883, 52, 0, 4
|3, 4, 884, 50, 0, 3
|3, 4, 887, 50, 0, 3
|3, 4, 888, 50, 0, 3
|3, 6, 889, 50, 0, 3
|3, 6, 891, 50, 0, 3
|3, 6, 891, 51, 0, 3
|3, 6, 892, 52, 0, 3
|3, 6, 893, 50, 0, 3
|3, 6, 894, 50, 0, 3
|3, 6, 895, 50, 0, 3
|6, 5, 903, 50, 0, 3
|6, 5, 904, 52, 0, 4
|6, 5, 904, 53, 0, 4
|6, 5, 905, 51, 0, 3
|6, 5, 906, 50, 0, 3
|6, 5, 907, 51, 0, 3
|6, 5, 908, 50, 0, 3
|6, 5, 909, 50, 0, 3
|5, 3, 911, 50, 0, 3
|8, 2, 914, 50, 1, 5
|3, 4, 917, 50, 0, 3
|3, 4, 917, 51, 0, 3
|3, 4, 918, 50, 0, 3
|2, 2, 921, 53, 0, 3
|1, 2, 923, 52, 0, 3
|6, 2, 925, 54, 1, 3
|2, 3, 933, 50, 0, 3
|1, 5, 936, 50, 0, 4
|1, 5, 936, 51, 0, 4
|8, 6, 945, 50, 1, 3
|8, 5, 947, 50, 0, 3
|12, 1, 950, 50, 1, 3
|12, 2, 951, 51, 1, 5
|12, 2, 952, 52, 1, 3
|12, 2, 953, 50, 0, 3
|12, 2, 954, 50, 1, 3
|12, 2, 955, 50, 1, 3
|12, 1, 967, 52, 1, 3
|6, 6, 981, 53, 1, 4
|];
Da=[{1, 138, 201, 230, 280},
{2, 40, 380},
{3, 279},
{4, 249, 250, 337, 338},
{5, 18, 119, 377},
{6, 38, 268},
{7, 9, 62, 71, 248, 385},
{8, 76, 262, 307},
{10, 235, 236},
{11, 157, 202, 376},
{12, 72, 88},
{13, 74, 319, 340},
{14, 266, 273, 274, 345, 346},
{15, 19, 77, 106},
{16},
{17, 128},
{20, 23, 322, 324},
{21, 22},
{24, 25, 194, 196, 329},
{26},
{27, 95, 193},
{28},
{29, 104, 105, 241, 258},
{30, 108, 333},
{31, 332},
{32},
{33, 103, 335},
{34, 336},
{35, 237, 369},
{36, 79, 83},
{37, 305},
{39, 80, 233, 275, 287},
{41, 260},
{42},
{43, 367, 368},
{44, 252, 253},
{45, 66, 131, 213},
{46, 86, 133, 152},
{47, 357},
{48, 55, 125},
{49, 129},
{50, 60},
{51, 69, 168, 212},
{52, 147, 209, 358},
{53, 149, 218, 219},
{54, 65, 136, 164, 208, 298},
{56, 63},
{57, 92, 122},
{58, 166, 362},
{59, 172},
{61, 135},
{64, 162, 331, 372},
{67, 283, 303},
{68},
{70, 176, 180},
{73, 320, 381, 383},
{75, 160, 374},
{78},
{81, 82},
{84, 289},
{85, 148, 292},
{87},
{89, 91},
{90, 299},
{93, 141, 282},
{94, 330},
{96, 244, 323, 327, 328},
{97, 177, 370, 371},
{98},
{99, 127},
{100},
{101},
{102, 254, 255, 354},
{107, 110},
{109},
{111, 112, 113, 115, 334},
{114},
{116},
{117, 224},
{118, 132, 221},
{120, 121},
{123, 145},
{124},
{126},
{130, 216},
{134, 360},
{137, 161},
{139},
{140, 146},
{142, 290},
{143, 286},
{144},
{150, 158, 205},
{151, 199, 217},
{153},
{154, 246, 382},
{155, 171, 321},
{156, 281},
{159, 215, 353},
{163, 204, 288},
{165, 203, 251, 270, 301, 311},
{167, 178, 183, 187, 308, 315},
{169, 174, 304},
{170, 188, 285, 293},
{173},
{175},
{179},
{181, 182},
{184, 190},
{185, 240, 316},
{186},
{189},
{191},
{192, 243, 276},
{195, 245},
{197, 326},
{198, 211},
{200},
{206, 294},
{207, 373},
{210, 300, 359},
{214},
{220, 364},
{222, 297},
{223, 232, 295, 366},
{225, 314},
{226, 259, 263, 318},
{227, 228, 267, 278, 309},
{229, 313},
{231, 247},
{234, 384},
{238, 375},
{239},
{242, 325},
{256, 257, 348},
{261, 356},
{264, 265},
{269, 272, 302, 306, 312},
{271, 296, 379},
{277},
{284},
{291},
{310, 339},
{317, 365},
{341, 342},
{343, 344},
{347, 349},
{350},
{351, 352, 355},
{361},
{363},
{378}
];
Ad=[1, 2, 3, 4, 5, 6, 7, 8, 7, 9, 10, 11, 12, 13, 14, 15, 16, 5, 14, 17, 18, 18, 17, 19, 19, 20, 21, 22, 23, 24, 25, 26, 27, 28, 29, 30, 31, 6, 32, 2, 33, 34, 35, 36, 37, 38, 39, 40, 41, 42, 43, 44, 45, 46, 40, 47, 48, 49, 50, 42, 51, 7, 47, 52, 46, 37, 53, 54, 43, 55, 7, 11, 56, 12, 57, 8, 14, 58, 30, 32, 59, 59, 30, 60, 61, 38, 62, 11, 63, 64, 63, 48, 65, 66, 21, 67, 68, 69, 70, 71, 72, 73, 27, 23, 23, 14, 74, 24, 75, 74, 76, 76, 76, 77, 76, 78, 79, 80, 5, 81, 81, 48, 82, 83, 40, 84, 70, 16, 41, 85, 37, 80, 38, 86, 51, 46, 87, 1, 88, 89, 65, 90, 91, 92, 82, 89, 44, 61, 45, 93, 94, 38, 95, 96, 97, 98, 10, 93, 99, 57, 87, 52, 100, 46, 101, 49, 102, 43, 103, 104, 97, 50, 105, 103, 106, 55, 68, 102, 107, 55, 108, 108, 102, 109, 110, 111, 102, 104, 112, 109, 113, 114, 21, 19, 115, 19, 116, 117, 94, 118, 1, 10, 101, 100, 93, 119, 120, 46, 44, 121, 117, 43, 37, 122, 99, 85, 94, 45, 45, 123, 80, 124, 125, 79, 126, 127, 128, 128, 129, 1, 130, 125, 32, 131, 9, 9, 29, 132, 133, 110, 23, 134, 114, 67, 115, 96, 130, 7, 4, 4, 101, 36, 36, 73, 73, 135, 135, 23, 127, 33, 136, 8, 127, 137, 137, 13, 128, 6, 138, 101, 139, 138, 13, 13, 32, 114, 140, 128, 3, 1, 98, 65, 53, 141, 104, 91, 32, 100, 60, 90, 142, 61, 104, 119, 125, 139, 124, 46, 64, 121, 101, 138, 53, 103, 31, 138, 8, 102, 128, 143, 101, 138, 129, 126, 102, 110, 144, 127, 12, 56, 97, 17, 67, 17, 134, 116, 67, 67, 19, 66, 52, 25, 24, 76, 27, 28, 4, 4, 143, 12, 145, 145, 146, 146, 13, 13, 147, 135, 147, 148, 149, 149, 99, 73, 149, 136, 39, 44, 121, 86, 150, 49, 151, 123, 144, 125, 35, 35, 29, 68, 68, 52, 120, 57, 132, 10, 5, 152, 139, 2, 56, 96, 56, 131, 7];
D=[|false, false, false, false, false, false, false, false, false, false, false, false, false, false, false, true , false, false, false, false, false, false, false, false, false, false, false, false, false, false, false, false, false, false, false, false, false, false, false, false, false, false, false, false, false, false, false, false, false, false, false, false, false, false, false, false, false, false, false, false, false, false, false, false, false, false, false, false, false, false, false, false, false, false, false, false, false, false, false, false, false, false, false, false, false, false, false, false, false, false, false, false, false, false, false, false, false, false, false, false, false, false, false, false, false, false, false, false, false, false, false, false, false, false, false, false, false, false, false, false, false, false, false, false, false, false, false, false, false, false, false, false, false, false, false, false, false, false, false, false, false, false, false, false, false, false, false, false, false, false, false, false
|true , true , false, false, false, false, false, false, false, true , false, false, true , false, false, true , false, false, true , false, false, false, false, false, false, false, false, false, true , false, false, false, true , false, false, false, false, false, false, false, false, false, false, true , false, false, false, true , true , false, false, false, false, false, false, false, false, false, true , false, false, false, false, false, false, false, true , false, false, false, false, false, false, false, false, false, false, false, false, true , false, false, false, false, false, true , false, false, false, false, false, false, false, false, false, false, false, false, false, false, false, false, false, true , false, false, false, false, false, false, false, false, false, false, false, true , false, false, false, false, false, false, false, false, true , false, true , false, false, false, false, false, false, false, false, false, false, true , true , false, false, false, false, false, false, false, false, false, false, false, false, false
|true , true , false, false, false, false, false, false, false, true , false, false, true , false, false, true , false, false, true , false, false, false, false, false, false, false, false, false, true , false, false, false, true , false, false, false, false, false, false, false, false, false, false, true , false, false, false, true , true , false, false, false, false, false, false, false, false, false, true , false, false, false, false, false, false, false, true , false, false, false, false, false, false, false, false, false, false, false, false, true , false, false, false, false, false, true , false, false, false, false, false, false, false, false, false, false, false, false, false, false, false, false, false, true , false, false, false, false, false, false, false, false, false, false, false, true , false, false, false, false, false, false, false, false, true , false, true , false, false, false, false, false, false, false, false, false, false, true , true , false, false, false, false, false, false, false, false, false, false, false, false, false
|true , true , false, false, false, false, false, false, false, true , false, false, true , false, false, true , false, false, true , false, false, false, false, true , false, false, false, false, true , false, false, false, true , false, false, false, false, false, false, false, false, false, false, true , false, false, false, true , true , false, false, false, false, false, false, false, false, false, true , false, false, false, false, false, false, false, true , false, false, false, false, false, false, false, true , false, false, false, false, true , false, false, false, false, false, true , false, false, false, false, false, false, false, false, false, false, false, false, false, false, false, false, false, true , false, false, false, false, false, false, false, false, false, false, false, true , false, false, false, false, false, false, false, false, true , false, true , false, false, false, false, false, false, false, false, false, false, true , true , false, false, false, false, false, false, false, false, false, false, false, false, false
|false, false, false, false, false, false, false, false, false, true , false, false, true , false, false, true , false, false, false, false, false, false, false, true , false, false, true , false, true , false, false, false, true , true , false, false, false, false, false, false, false, false, false, true , false, false, false, false, false, false, false, false, false, false, false, false, false, true , false, false, false, false, false, false, false, false, true , false, false, false, false, false, false, false, true , false, false, false, false, false, false, false, false, false, false, false, false, false, false, false, false, true , true , false, false, false, false, false, false, false, false, false, false, true , false, false, false, false, false, false, false, false, false, false, false, false, false, false, false, true , false, false, false, false, false, false, false, false, false, false, false, true , false, false, false, false, false, true , false, false, false, false, false, false, false, false, false, false, false, true , false, false
|false, false, false, false, false, false, false, false, false, true , false, false, true , false, false, true , false, false, false, false, false, false, false, true , false, false, true , false, true , false, false, false, true , true , false, false, false, false, false, false, false, false, false, true , false, false, false, false, false, false, false, false, false, false, false, false, false, true , false, false, false, false, false, false, false, false, true , false, false, false, false, false, false, false, true , false, false, false, false, false, false, false, false, false, false, false, false, false, false, false, false, true , true , false, false, false, false, false, false, false, false, false, false, true , false, false, false, false, false, false, false, false, false, false, false, false, false, false, false, true , false, false, false, false, false, false, false, false, false, false, false, true , false, false, false, false, false, true , false, false, false, false, false, false, false, false, false, false, false, true , false, false
|false, false, false, false, false, false, false, false, false, true , false, false, false, false, false, true , false, false, false, false, false, false, false, false, false, false, true , false, true , false, false, false, true , true , false, false, false, false, false, false, false, false, false, true , false, false, false, false, false, false, false, false, false, false, false, false, false, true , false, false, false, false, false, false, false, false, false, false, false, false, false, false, false, false, false, false, false, false, false, false, false, false, false, false, false, false, false, false, false, false, false, true , true , false, false, false, false, false, false, false, false, false, false, false, false, false, false, false, false, false, false, false, false, false, false, false, false, false, false, true , false, false, false, false, false, false, false, false, false, false, false, true , false, false, false, false, false, false, false, false, false, false, false, false, false, false, false, false, false, true , false, false
|false, false, false, false, false, false, false, false, false, false, false, false, false, false, false, true , false, false, false, false, false, false, false, false, false, false, false, false, false, false, false, false, false, false, false, false, false, false, false, false, false, false, false, false, false, false, false, false, false, false, false, false, false, false, false, false, false, false, false, false, false, false, false, false, false, false, false, false, false, false, false, false, false, false, false, false, false, false, true , false, false, false, false, false, false, false, false, false, false, false, false, false, false, false, false, false, false, false, false, false, false, false, false, false, false, false, false, false, false, false, false, false, false, false, false, false, false, false, false, false, false, false, false, false, false, false, false, false, false, false, false, false, false, false, false, false, false, false, false, false, false, false, false, false, false, false, false, false, false, false, false, false
|false, false, false, false, false, false, true , false, false, false, false, true , false, false, false, true , false, false, true , false, false, true , true , true , false, false, false, false, false, false, false, false, false, true , false, false, false, false, false, false, false, false, false, false, false, false, false, false, false, false, false, false, false, false, false, false, false, false, false, false, false, false, false, false, false, false, true , false, false, true , false, false, false, false, false, false, false, true , true , false, false, false, false, false, true , false, false, false, false, false, false, false, false, false, false, false, false, false, false, true , false, false, false, false, false, false, true , false, false, false, false, false, false, false, true , true , false, false, false, false, false, false, false, false, true , false, true , false, false, false, false, true , false, false, false, false, false, false, false, false, false, false, false, false, false, true , false, false, false, true , false, false
|true , false, false, false, false, false, true , false, false, false, false, true , false, false, false, true , false, false, true , false, false, true , true , true , false, true , false, false, false, true , false, false, false, true , false, false, false, false, false, false, false, false, false, false, false, false, false, false, false, false, false, false, false, false, false, false, false, false, false, false, false, false, false, false, false, false, true , true , false, true , false, false, true , false, false, false, false, true , true , false, false, false, false, false, true , false, false, false, false, false, false, false, false, false, false, false, false, false, false, true , false, false, false, false, false, false, true , false, false, false, false, false, false, false, true , true , false, false, true , false, false, true , false, false, true , false, true , false, false, false, false, true , false, false, false, false, false, false, false, false, false, false, false, false, false, true , false, false, false, true , false, false
|true , false, false, false, false, false, true , false, false, false, false, true , false, false, false, true , false, false, true , false, false, true , true , true , false, true , false, false, false, true , false, false, false, true , false, false, false, false, false, false, false, false, false, false, false, false, false, false, false, false, false, false, false, false, false, false, false, false, false, false, false, false, false, false, false, false, true , true , false, true , false, false, true , false, false, false, false, true , false, false, false, false, false, false, true , false, false, false, false, false, false, false, false, false, false, false, false, false, false, true , false, false, false, false, false, false, true , false, false, false, false, false, false, false, true , true , false, false, true , false, false, true , false, false, true , false, true , false, false, false, false, true , false, false, false, false, false, false, false, false, false, false, false, false, false, true , false, false, false, true , false, false
|true , false, false, false, false, false, true , false, false, false, false, false, false, false, false, true , false, false, true , false, false, true , true , false, false, true , false, false, false, true , false, false, false, false, false, false, false, false, false, false, false, false, false, false, false, false, false, false, false, false, false, false, false, false, false, false, false, false, false, false, false, false, false, false, false, false, false, true , false, false, false, false, true , false, false, false, false, false, false, false, false, false, false, false, false, false, false, false, false, false, false, false, false, false, false, false, false, false, false, false, false, false, false, false, false, false, false, false, false, false, false, false, false, false, true , false, false, false, true , false, false, true , false, false, false, false, true , false, false, false, false, true , false, false, false, false, false, false, false, false, false, false, false, false, false, false, false, false, false, false, false, false
|false, false, false, false, false, false, true , false, false, false, false, true , false, false, true , true , false, false, false, false, false, false, false, false, false, false, false, false, false, false, false, false, false, false, false, false, true , false, false, false, false, false, false, false, false, false, false, false, true , false, false, true , false, false, false, true , true , false, false, false, false, false, true , false, false, false, false, false, false, false, false, false, false, false, false, false, false, false, false, true , false, false, false, true , true , false, false, false, true , false, false, false, false, false, false, false, false, false, false, true , false, false, true , false, false, false, false, false, false, false, false, false, false, false, false, false, false, false, true , false, false, false, false, false, true , false, true , false, false, false, false, false, false, false, false, false, false, true , true , false, false, false, false, false, false, false, false, false, false, false, false, false
|false, false, false, false, false, false, true , false, false, false, false, true , false, false, true , true , false, false, false, false, false, false, false, false, false, false, false, false, false, false, false, false, false, false, false, false, true , false, false, false, false, false, false, false, false, false, false, false, true , false, false, true , false, false, false, true , true , false, false, false, false, false, true , false, false, false, false, false, false, false, false, false, false, false, false, false, false, false, false, true , false, false, false, true , true , false, false, false, true , false, false, false, false, false, false, false, false, false, false, true , false, false, true , false, false, false, false, false, false, false, false, false, false, false, false, false, false, false, true , false, false, false, false, false, true , false, true , false, false, false, false, false, false, false, false, false, false, true , true , false, false, false, false, false, false, false, false, false, false, false, false, false
|false, false, false, false, false, false, true , false, false, false, false, true , false, false, true , true , false, false, false, false, false, false, false, false, false, false, false, false, false, false, false, false, false, false, false, false, true , false, false, false, false, false, false, false, false, false, false, false, true , false, false, true , false, false, false, true , true , false, false, false, false, false, true , false, false, false, false, false, false, false, false, false, false, false, false, false, false, false, false, true , false, false, false, true , true , false, false, false, true , false, false, false, false, false, false, false, false, false, false, true , false, false, true , false, false, false, false, false, false, false, false, false, false, false, false, false, false, false, true , false, false, false, false, false, true , false, true , false, false, false, false, false, false, false, false, false, false, true , true , false, false, false, false, false, false, false, false, false, false, false, false, false
|false, false, false, false, false, false, true , false, false, false, false, false, false, false, false, true , false, false, false, false, false, false, false, false, false, false, false, false, false, false, false, false, false, false, false, false, false, false, false, false, false, false, false, false, false, false, false, false, false, false, false, false, false, false, false, false, true , false, false, false, false, false, true , false, false, false, false, false, false, false, false, false, false, false, false, false, false, false, false, false, false, false, false, false, false, false, false, false, false, false, false, false, false, false, false, false, false, false, false, false, false, false, false, false, false, false, false, false, false, false, false, false, false, false, false, false, false, false, false, false, false, false, false, false, false, false, true , false, false, false, false, false, false, false, false, false, false, true , false, false, false, false, false, false, false, false, false, false, false, false, false, false
|false, false, false, false, false, false, false, false, false, false, false, false, false, false, false, false, false, false, false, false, false, false, false, false, false, false, false, false, false, false, false, false, false, false, false, false, false, false, false, false, false, false, false, false, false, false, false, false, false, false, false, false, false, false, false, false, false, false, false, false, false, false, false, false, false, false, false, false, false, false, false, false, false, false, false, false, false, false, false, false, false, false, false, false, false, false, false, false, false, false, false, false, false, false, false, false, false, false, false, false, false, false, false, false, false, false, false, false, false, false, false, false, false, false, false, false, false, false, false, false, false, false, false, false, false, false, false, false, false, false, false, false, false, false, false, false, false, false, false, false, false, false, false, false, false, false, false, false, false, false, false, false
|false, false, true , true , false, false, false, false, true , false, false, false, false, false, false, false, true , false, true , false, false, false, false, false, false, false, true , false, false, true , false, false, false, false, false, false, false, false, false, false, true , false, false, false, false, false, false, false, false, false, false, false, true , false, false, false, false, false, false, false, false, false, false, false, false, true , true , false, false, false, false, false, true , false, false, false, false, false, false, false, false, false, false, false, false, false, false, false, false, false, true , false, false, false, false, false, false, false, true , false, false, false, false, true , false, false, false, false, false, true , false, false, false, false, false, false, false, false, false, false, false, false, false, false, false, false, false, false, false, true , false, false, false, true , true , true , false, true , false, false, false, false, false, true , false, false, false, false, false, false, false, false
|false, false, true , true , false, false, false, false, true , false, false, false, false, false, false, false, true , false, true , false, false, false, false, false, false, false, true , false, false, true , false, false, false, false, false, false, false, false, false, false, true , false, false, false, false, false, false, false, false, false, false, false, true , false, false, false, false, false, false, false, false, false, false, false, false, true , true , false, false, false, false, false, true , false, false, false, false, false, false, false, false, false, false, false, false, false, false, false, false, false, true , false, false, false, false, false, false, false, true , false, false, false, false, true , false, false, false, false, false, true , false, false, false, false, false, false, false, false, false, false, false, false, false, false, false, false, false, false, false, true , false, false, false, true , true , true , false, true , false, false, false, false, false, true , false, false, false, false, false, false, false, false
|false, false, true , true , false, false, false, false, true , false, false, false, false, false, false, false, true , false, true , false, false, false, true , false, false, false, true , false, false, true , false, false, false, false, false, false, false, false, false, false, true , false, false, false, false, false, false, false, false, false, false, false, true , false, false, false, false, false, false, false, false, false, false, false, false, true , true , false, false, false, false, false, true , false, false, false, false, false, false, false, false, false, false, false, false, false, false, false, false, false, true , false, false, false, false, false, false, false, true , false, false, false, false, true , false, false, false, false, false, true , false, false, false, false, false, false, false, false, false, false, false, false, false, false, false, false, false, false, false, true , false, false, false, true , true , true , false, true , false, false, false, false, false, true , false, false, false, false, false, false, false, false
|false, false, true , true , false, false, false, false, true , false, false, false, true , false, false, false, true , false, false, false, false, false, true , false, false, false, true , false, false, false, false, false, false, false, false, false, false, false, false, false, false, false, false, false, false, false, false, false, false, false, false, false, false, false, false, false, false, false, false, false, false, false, false, false, true , false, true , false, false, false, false, true , false, false, false, false, false, false, true , false, false, false, false, false, false, false, false, false, false, false, false, false, true , true , false, false, true , true , false, false, false, true , true , true , false, false, false, false, false, true , false, false, false, false, false, false, false, false, false, true , false, false, false, false, false, false, false, false, false, true , false, false, false, false, true , false, false, true , true , false, false, false, false, true , false, false, true , false, false, false, false, false
|false, false, true , true , false, false, false, false, true , false, false, false, true , false, false, false, true , false, false, false, false, false, true , false, false, false, true , false, false, false, false, false, false, false, false, false, false, false, false, false, false, false, false, false, false, false, false, false, false, false, false, false, false, false, false, false, false, false, false, false, false, false, false, false, true , false, true , false, false, false, false, true , false, false, false, false, false, false, true , false, false, false, false, false, false, false, false, false, false, false, false, false, true , true , false, false, true , true , false, false, false, true , true , true , false, false, false, false, false, true , false, false, false, false, false, false, false, false, false, true , false, false, false, false, false, false, false, false, false, true , false, false, false, false, true , false, false, true , true , false, false, false, false, true , false, false, true , false, false, false, false, false
|false, false, false, true , false, false, false, false, true , false, false, false, true , false, false, false, true , false, false, false, false, false, false, false, false, false, true , false, false, false, false, false, false, false, false, false, false, false, false, false, false, false, false, false, false, false, false, false, false, false, false, false, false, false, false, false, false, false, false, false, false, false, false, false, true , false, true , false, false, false, false, true , false, false, false, false, false, false, true , false, false, false, false, false, false, false, false, false, false, false, false, false, true , true , false, false, true , true , false, false, false, true , true , false, false, false, false, false, false, true , false, false, false, false, false, false, false, false, false, true , false, false, false, false, false, false, false, false, false, false, false, false, false, false, true , false, false, false, true , false, false, false, false, false, false, false, true , false, false, false, false, false
|false, false, false, true , false, false, false, false, false, false, false, false, false, false, false, false, false, false, false, false, false, false, false, false, false, false, false, false, false, false, false, false, false, false, false, false, false, false, false, false, false, false, false, false, false, false, false, false, false, false, false, false, false, false, false, false, false, false, false, false, false, false, false, false, false, false, false, false, false, false, false, false, false, false, false, false, false, false, false, false, false, false, false, false, false, false, false, false, false, false, false, false, false, false, false, false, false, false, false, false, false, false, false, false, false, false, false, false, false, false, false, false, false, false, false, false, false, false, false, false, false, false, false, false, false, false, false, false, false, false, false, false, false, false, false, false, false, false, false, false, false, false, false, false, false, false, false, false, false, false, false, false
|true , false, true , true , false, false, true , false, false, false, false, false, false, true , false, false, true , true , false, false, false, false, true , false, false, false, false, false, false, false, true , false, false, false, false, false, false, false, false, false, false, false, false, true , false, false, false, false, false, false, false, false, false, false, false, false, false, false, false, false, false, false, false, false, false, true , false, true , false, false, false, true , false, false, false, true , false, false, false, false, false, false, false, false, false, false, false, false, false, false, false, false, false, false, false, false, false, false, false, false, false, true , false, false, false, false, false, false, false, true , false, false, false, true , false, false, false, false, false, false, false, false, false, false, false, false, false, false, false, false, false, false, false, false, true , false, false, false, false, false, false, false, false, true , true , false, false, false, false, false, false, false
|true , false, true , true , false, false, true , false, false, false, false, false, false, true , false, false, true , true , false, false, false, false, true , false, false, false, false, false, false, false, true , false, false, false, false, false, false, false, false, false, false, false, false, true , false, false, true , false, false, false, false, true , false, false, false, false, false, false, false, false, false, false, false, false, true , true , false, true , false, false, false, true , true , false, false, true , false, false, false, false, false, false, false, false, false, false, false, false, false, false, false, false, false, false, false, false, false, false, false, false, false, true , false, false, false, false, false, false, false, true , false, false, false, true , false, false, false, true , false, false, false, false, true , false, false, false, false, false, false, false, false, false, false, false, true , false, true , false, false, false, false, false, false, true , true , false, false, false, false, false, false, false
|true , false, true , true , false, false, true , false, false, false, false, false, false, true , false, false, true , true , false, false, false, false, true , false, false, false, false, false, false, false, true , false, false, false, false, false, false, false, false, false, false, false, false, true , false, false, true , false, false, false, false, true , false, false, false, false, false, false, false, false, false, false, false, false, true , true , false, true , false, false, false, true , true , false, false, true , false, false, false, false, false, false, false, false, false, false, false, false, false, false, false, false, false, false, false, false, false, false, false, false, false, true , false, false, false, false, false, false, false, true , false, false, false, true , false, false, false, true , false, false, false, false, true , false, false, false, false, false, false, false, false, false, false, false, true , false, true , false, false, false, false, false, false, true , true , false, false, false, false, false, false, false
|true , false, false, false, false, false, true , false, false, false, false, false, false, false, false, false, false, false, false, false, false, false, true , false, false, false, false, false, false, false, true , false, false, false, false, false, false, false, false, false, false, false, false, true , false, false, true , false, false, false, false, true , false, false, false, false, false, false, false, false, false, false, false, false, true , false, false, true , false, false, false, true , true , false, false, false, false, false, false, false, false, false, false, false, false, false, false, false, false, false, false, false, false, false, false, false, false, false, false, false, false, true , false, false, false, false, false, false, false, true , false, false, false, false, false, false, false, true , false, false, false, false, true , false, false, false, false, false, false, false, false, false, false, false, false, false, true , false, false, false, false, false, false, false, false, false, false, false, false, false, false, false
|false, true , false, false, false, false, true , false, false, true , true , true , false, true , false, false, false, false, false, false, false, false, false, false, false, false, false, false, false, false, false, false, false, false, false, false, true , false, false, true , false, false, false, false, false, false, false, true , false, false, false, false, true , false, false, false, false, false, false, false, false, false, false, false, false, false, false, false, false, false, false, false, false, false, false, false, false, false, false, false, false, false, false, false, false, false, false, false, true , false, false, false, false, false, false, false, false, false, false, false, false, false, false, true , false, false, false, false, false, false, false, false, false, false, false, false, false, false, false, false, true , false, true , false, false, true , false, true , false, false, false, false, false, false, false, false, false, false, false, false, false, false, false, false, false, false, false, false, false, false, false, true 
|false, true , false, false, false, false, true , false, false, true , true , true , false, true , false, false, false, false, false, false, false, false, false, false, false, false, false, false, false, false, false, false, false, false, false, false, true , false, false, true , false, false, false, false, false, false, false, true , false, false, false, false, true , false, false, false, false, false, false, false, false, false, false, false, false, false, false, false, false, false, false, false, false, false, false, false, false, false, false, false, false, false, false, false, false, false, false, false, true , false, false, false, false, false, false, false, false, false, false, false, false, false, false, true , false, false, false, false, false, false, false, false, false, false, false, false, false, false, false, false, true , false, true , false, false, true , false, true , false, false, false, false, false, false, false, false, false, false, false, false, false, false, false, false, false, false, false, false, false, false, false, true 
|false, true , false, false, false, false, true , false, false, true , true , true , false, true , false, false, false, false, false, false, false, false, false, false, false, false, false, false, false, false, false, false, false, false, false, false, true , false, false, true , false, false, false, false, false, false, false, true , false, false, false, false, true , false, false, false, false, false, false, false, false, false, false, false, false, false, false, false, false, false, false, false, false, false, false, false, false, false, false, false, false, false, false, false, false, false, false, false, true , false, false, false, false, false, false, false, false, false, false, false, false, false, false, true , false, false, false, false, false, false, false, false, false, false, false, false, false, false, false, false, true , false, true , false, false, true , false, true , false, false, false, false, false, false, false, false, false, false, false, false, false, false, false, false, false, false, false, false, false, false, false, true 
|false, false, false, false, false, false, true , false, false, false, true , true , false, false, false, false, false, false, false, false, false, false, false, false, false, false, false, false, false, false, false, false, false, false, false, false, false, false, false, false, false, false, false, false, false, false, false, false, false, false, false, false, false, false, false, false, false, false, false, false, false, false, false, false, false, false, false, false, false, false, false, false, false, false, false, false, false, false, false, false, false, false, false, false, false, false, false, false, false, false, false, false, false, false, false, false, false, false, false, false, false, false, false, true , false, false, false, false, false, false, false, false, false, false, false, false, false, false, false, false, true , false, false, false, false, true , false, false, false, false, false, false, false, false, false, false, false, false, false, false, false, false, false, false, false, false, false, false, false, false, false, false
|false, false, false, false, false, false, false, false, false, false, false, false, false, false, false, false, false, false, false, false, false, false, false, false, false, false, false, false, false, false, false, false, false, false, false, false, false, false, false, false, false, false, false, false, false, false, false, false, false, false, false, false, false, false, false, false, false, false, false, false, false, false, false, false, false, false, false, false, false, false, false, false, false, false, false, false, false, false, false, false, false, false, false, false, false, false, false, false, false, false, false, false, false, false, false, false, false, false, false, false, false, false, false, false, false, false, false, false, false, false, false, false, false, false, false, false, false, false, false, false, false, false, false, false, false, false, false, false, false, false, false, false, false, false, false, false, false, false, false, false, false, false, false, false, false, false, false, false, false, false, false, false
|true , false, false, false, false, true , false, true , false, false, false, false, true , false, false, false, false, false, false, false, false, false, true , false, false, false, false, false, false, false, false, true , false, false, false, true , false, true , false, false, false, false, false, false, true , true , false, true , false, false, false, false, true , false, false, false, false, false, false, false, false, false, false, false, true , false, true , false, false, false, false, false, false, false, false, true , false, false, false, false, false, false, false, false, false, false, false, false, false, false, false, false, true , false, false, false, false, false, true , true , false, false, false, false, false, false, false, true , false, true , true , false, true , false, false, false, false, false, false, false, false, false, false, false, false, false, false, true , false, false, false, false, false, false, false, false, false, false, false, true , false, false, false, false, false, false, false, false, false, false, true , false
|true , false, false, false, false, true , false, true , false, false, false, false, true , false, false, false, false, false, false, false, false, false, true , false, false, false, false, false, false, false, false, true , false, false, false, true , false, true , false, false, false, false, false, false, true , true , false, true , false, false, false, false, true , false, false, false, false, false, false, false, false, false, false, false, true , false, true , false, false, false, false, false, false, false, false, true , false, false, false, false, false, false, false, false, false, false, false, false, false, false, false, false, true , false, false, false, false, false, true , true , false, false, false, false, false, false, false, true , false, true , true , false, true , false, false, false, false, false, false, false, false, false, false, false, false, false, false, true , false, false, false, false, false, false, false, false, false, false, false, true , false, false, false, false, false, false, false, false, false, false, true , false
|true , false, false, false, false, true , false, true , false, false, false, false, true , false, false, false, false, false, false, false, false, false, true , true , false, false, false, false, false, false, false, true , false, false, false, true , false, true , false, false, false, false, false, false, true , true , false, true , false, false, false, false, true , false, false, false, false, false, false, false, false, false, false, false, true , false, true , false, false, false, false, false, false, false, false, true , false, false, false, false, false, false, false, false, false, false, false, false, false, false, false, false, true , false, false, false, false, false, true , true , true , false, false, false, false, false, false, true , false, true , true , false, true , false, false, false, false, false, false, false, false, false, false, false, false, false, false, true , false, false, false, false, false, false, false, false, false, false, false, true , false, false, false, false, false, false, false, false, false, false, true , false
|false, false, false, false, false, true , false, false, false, false, false, false, false, true , false, false, false, false, false, false, false, false, true , true , false, false, false, false, false, false, false, true , false, false, false, true , false, true , false, false, false, false, false, false, true , false, false, false, false, false, false, false, true , false, false, false, false, false, false, false, true , false, false, false, false, false, false, false, false, false, false, false, false, false, false, true , false, false, false, false, false, false, false, false, false, false, false, false, false, true , false, false, false, true , false, true , false, true , false, false, true , true , false, false, false, false, false, true , false, false, true , false, false, true , false, false, false, false, false, false, false, false, false, false, false, false, false, true , false, false, false, false, false, false, false, false, false, false, false, false, false, false, false, false, false, false, true , false, false, false, false, false
|false, false, false, false, false, true , false, false, false, false, false, false, false, true , false, false, false, false, false, false, false, false, true , true , false, false, false, false, false, false, false, true , false, false, false, true , false, true , false, false, false, false, false, false, true , false, false, false, false, false, false, false, true , false, false, false, false, false, false, false, true , false, false, false, false, false, false, false, false, false, false, false, false, false, false, true , false, false, false, false, false, false, false, false, false, false, false, false, false, true , false, false, false, true , false, true , false, true , false, false, true , true , false, false, false, false, false, true , false, false, true , false, false, true , false, false, false, false, false, false, false, false, false, false, false, false, false, true , false, false, false, false, false, false, false, false, false, false, false, false, false, false, false, false, false, false, true , false, false, false, false, false
|false, false, false, false, false, true , false, false, false, false, false, false, false, true , false, false, false, false, false, false, false, false, true , false, false, false, false, false, false, false, false, false, false, false, false, false, false, true , false, false, false, false, false, false, true , false, false, false, false, false, false, false, true , false, false, false, false, false, false, false, true , false, false, false, false, false, false, false, false, false, false, false, false, false, false, true , false, false, false, false, false, false, false, false, false, false, false, false, false, true , false, false, false, true , false, true , false, true , false, false, false, true , false, false, false, false, false, false, false, false, false, false, false, true , false, false, false, false, false, false, false, false, false, false, false, false, false, true , false, false, false, false, false, false, false, false, false, false, false, false, false, false, false, false, false, false, true , false, false, false, false, false
|false, false, false, false, false, false, false, false, false, false, false, false, false, false, false, false, false, false, false, false, false, false, false, false, false, false, false, false, false, false, false, false, false, false, false, false, false, false, false, false, false, false, false, false, false, false, false, false, false, false, false, false, false, false, false, false, false, false, false, false, false, false, false, false, false, false, false, false, false, false, false, false, false, false, false, false, false, false, false, false, false, false, false, false, false, false, false, false, false, false, false, false, false, false, false, false, false, false, false, false, false, false, false, false, false, false, false, false, false, false, false, false, false, false, false, false, false, false, false, false, false, false, false, false, false, false, false, false, false, false, false, false, false, false, false, false, false, false, false, false, false, false, false, false, false, false, false, false, false, false, false, false
|true , false, false, false, false, false, false, false, false, false, false, false, false, true , false, false, false, false, false, false, false, false, true , false, false, false, true , false, false, false, false, false, false, false, false, true , false, false, false, false, false, false, false, true , false, false, false, false, false, false, false, false, false, false, false, false, false, false, false, false, false, false, false, false, false, false, true , false, false, true , false, false, false, false, false, true , false, false, false, false, false, false, false, false, false, false, false, false, false, false, false, false, false, false, false, false, false, false, true , false, true , true , false, false, false, false, true , false, false, false, false, true , false, true , false, false, false, false, false, false, false, false, false, false, false, false, false, false, false, false, false, false, false, false, false, false, false, false, false, false, false, false, false, false, true , false, false, false, false, false, false, false
|true , false, false, false, false, false, false, false, false, false, false, false, false, true , false, false, false, false, false, false, false, false, true , false, false, false, true , false, false, false, true , false, false, false, false, true , false, false, false, false, false, false, true , true , false, true , false, false, false, false, false, true , false, false, false, false, false, false, false, false, false, false, false, false, false, false, true , true , false, true , false, false, false, false, false, true , false, false, false, false, false, false, false, false, false, false, false, false, false, false, false, false, false, false, false, true , false, false, true , false, true , true , false, false, false, true , true , false, false, false, false, true , false, true , false, false, false, false, false, false, false, false, false, false, false, false, false, false, false, false, false, false, false, false, false, false, false, true , false, false, false, false, false, false, true , false, false, false, false, false, false, false
|true , false, false, false, false, false, false, false, false, false, false, false, false, true , false, false, false, false, false, false, false, false, true , false, false, false, true , false, false, false, true , false, false, false, false, true , false, false, false, false, false, false, true , true , false, true , false, false, false, false, false, true , false, false, false, false, false, false, false, false, false, false, false, false, false, false, true , true , false, true , false, false, false, false, false, true , false, false, false, false, false, false, false, false, false, false, false, false, false, false, false, false, false, false, false, true , false, false, true , false, true , true , false, false, false, true , true , false, false, false, false, true , false, true , false, false, false, false, false, false, false, false, false, false, false, false, false, false, false, false, false, false, false, false, false, false, false, true , false, false, false, false, false, false, true , false, false, false, false, false, false, false
|false, false, false, false, false, false, false, false, false, false, false, false, false, false, false, false, false, false, false, false, false, false, true , false, false, false, true , false, false, false, true , false, false, false, false, true , false, false, false, false, false, false, true , true , false, true , false, false, false, false, false, true , false, false, false, false, false, false, false, false, false, false, true , false, false, false, false, true , false, false, false, false, false, false, false, true , false, false, false, false, false, false, false, false, false, false, false, false, false, false, false, false, false, false, false, true , false, false, false, false, true , false, false, false, false, true , false, false, false, false, false, false, false, true , false, false, false, false, false, false, false, false, false, false, false, false, false, false, false, false, false, false, false, false, false, false, false, true , false, false, false, false, false, false, false, false, false, false, false, false, false, false
|false, false, false, false, true , false, false, false, true , false, false, true , false, false, false, false, false, false, false, false, false, false, false, false, false, false, false, false, false, false, false, false, false, false, false, false, false, true , false, false, false, false, true , false, false, true , true , false, false, false, false, true , false, false, false, true , false, false, false, false, false, false, true , false, false, false, false, false, false, true , false, false, false, false, false, false, false, false, false, false, false, true , true , false, false, false, false, false, false, false, false, false, false, true , false, true , false, false, false, false, true , false, false, false, false, false, false, false, false, false, false, false, false, false, false, false, false, false, false, false, false, false, false, false, true , false, false, false, false, false, false, false, false, false, false, false, false, false, false, false, false, true , false, false, false, false, false, false, false, false, false, false
|false, false, false, false, true , false, false, false, true , false, false, true , false, false, false, false, false, false, false, false, false, false, false, false, false, false, false, false, false, false, false, false, false, false, false, false, false, true , false, false, false, false, true , false, false, true , true , false, false, false, false, true , false, false, false, true , false, false, false, false, false, false, true , false, false, false, false, false, false, true , false, false, false, false, false, false, false, false, false, false, false, true , true , false, false, false, false, false, false, false, false, false, false, true , false, true , false, false, false, false, true , false, false, false, false, false, false, false, false, false, false, false, false, false, false, false, false, false, false, false, false, false, false, false, true , false, false, false, false, false, false, false, false, false, false, false, false, false, false, false, false, true , false, false, false, false, false, false, false, false, false, false
|false, false, false, false, true , false, false, false, true , false, false, true , false, false, false, false, false, false, false, false, false, false, false, false, false, false, false, false, false, false, false, false, false, false, false, false, false, true , false, false, false, false, true , false, false, true , true , false, false, false, false, true , false, false, false, true , false, false, false, false, false, false, true , false, false, false, false, false, false, true , false, false, false, false, false, false, false, false, false, false, false, true , true , false, false, false, false, false, false, false, false, false, false, true , false, true , false, false, false, false, true , false, false, false, false, false, false, false, false, false, false, false, false, false, false, false, false, false, false, false, false, false, false, false, true , false, false, false, false, false, false, false, false, false, false, false, false, false, false, false, false, true , false, false, false, false, false, false, false, false, false, false
|false, false, false, false, false, false, false, false, true , false, false, false, false, false, false, false, false, false, false, false, false, false, false, false, false, false, false, false, false, false, false, false, false, false, false, false, false, false, false, false, false, false, false, false, false, false, false, false, false, false, false, false, false, false, false, true , false, false, false, false, false, false, true , false, false, false, false, false, false, true , false, false, false, false, false, false, false, false, false, false, false, false, false, false, false, false, false, false, false, false, false, false, false, false, false, false, false, false, false, false, true , false, false, false, false, false, false, false, false, false, false, false, false, false, false, false, false, false, false, false, false, false, false, false, true , false, false, false, false, false, false, false, false, false, false, false, false, false, false, false, false, false, false, false, false, false, false, false, false, false, false, false
|false, false, false, false, false, false, false, false, false, false, false, false, false, false, false, false, false, false, false, false, false, false, false, false, false, false, false, false, false, false, false, false, false, false, false, false, false, false, false, false, false, false, false, false, false, false, false, false, false, false, false, false, false, false, false, false, false, false, false, false, false, false, false, false, false, false, false, false, false, false, false, false, false, false, false, false, false, false, false, false, false, false, false, false, false, false, false, false, false, false, false, false, false, false, false, false, false, false, false, false, false, false, false, false, false, false, false, false, false, false, false, false, false, false, false, false, false, false, false, false, false, false, false, false, false, false, false, false, false, false, false, false, false, false, false, false, false, false, false, false, false, false, false, false, false, false, false, false, false, false, false, false
|false, false, false, true , false, false, false, false, true , false, false, false, false, false, false, false, true , false, false, false, false, false, false, false, false, false, false, true , false, false, false, true , false, false, true , false, false, false, false, false, false, false, true , false, false, false, false, false, false, false, false, false, false, false, false, false, false, false, false, false, false, false, false, false, false, false, false, false, false, false, false, false, true , false, false, false, false, false, false, false, false, false, false, false, false, false, false, true , false, false, true , false, false, false, false, false, false, false, false, true , false, false, false, false, false, false, false, true , false, false, false, false, false, true , false, false, false, false, false, false, true , false, false, false, false, false, false, false, false, true , false, false, false, true , false, false, false, true , false, false, false, false, false, false, false, false, false, false, false, false, false, false
|false, false, false, true , false, false, false, false, true , false, false, false, false, false, false, false, true , false, false, false, false, false, false, false, false, false, false, true , false, false, false, true , false, false, true , false, false, false, false, false, false, false, true , false, false, false, false, false, false, false, false, false, false, false, false, false, false, false, false, false, false, false, false, false, false, false, false, false, false, false, false, false, true , false, false, false, false, false, false, false, false, false, false, false, false, false, false, true , false, false, true , false, false, false, false, false, false, false, false, true , false, false, false, false, false, false, false, true , false, false, false, false, false, true , false, false, false, false, false, false, true , false, false, false, false, false, false, false, false, true , false, false, false, true , false, false, false, true , false, false, false, false, false, false, false, false, false, false, false, false, false, false
|false, false, false, true , false, false, false, false, true , false, false, false, false, false, false, false, true , false, false, false, false, false, false, false, false, false, false, true , false, false, false, true , false, false, true , false, false, false, false, false, false, false, true , false, false, false, false, false, false, false, false, false, false, false, false, false, false, false, false, false, false, false, false, false, false, false, false, false, false, false, false, false, true , false, false, false, false, false, false, false, false, false, false, false, false, false, false, true , false, false, true , false, false, false, false, false, false, false, false, true , false, false, false, false, false, false, false, true , false, false, false, false, false, true , false, false, false, false, false, false, true , false, false, false, true , false, false, false, false, true , false, false, false, true , false, false, false, true , false, false, false, false, false, false, false, false, false, false, false, false, false, false
|false, true , false, true , false, false, false, false, false, false, false, false, false, false, false, false, false, false, false, false, false, false, false, false, false, false, false, true , false, false, false, true , false, false, true , true , false, false, false, false, false, false, true , false, false, false, false, false, false, false, false, false, false, false, true , false, false, false, false, false, false, false, false, false, true , false, false, false, false, false, false, false, true , false, false, false, false, false, false, false, false, true , false, false, false, false, false, false, false, false, false, false, false, false, false, false, true , false, true , false, true , true , false, false, false, false, false, true , false, false, false, false, false, false, false, false, false, false, false, false, true , false, false, false, true , false, false, false, false, true , false, false, false, false, false, false, false, true , false, false, false, false, false, false, false, false, false, false, false, false, false, false
|false, true , false, true , false, false, false, false, false, false, false, false, false, false, false, false, false, false, false, false, false, false, false, false, false, false, false, true , false, false, false, true , false, false, true , true , false, false, false, false, false, false, true , false, false, false, false, false, false, false, false, false, false, false, true , false, false, false, false, false, false, false, false, false, true , false, false, false, false, false, false, false, true , false, false, false, false, false, false, false, false, true , false, false, false, false, false, false, false, false, false, false, false, false, false, false, true , false, true , false, true , true , false, false, false, false, false, true , false, false, false, false, false, false, false, false, false, false, false, false, true , false, false, false, true , false, false, false, false, true , false, false, false, false, false, false, false, true , false, false, false, false, false, false, false, false, false, false, false, false, false, false
|false, true , false, true , false, false, false, false, false, false, false, false, false, false, false, false, false, false, false, false, false, false, false, false, false, false, false, true , false, false, false, true , false, false, true , true , false, false, false, false, false, false, true , false, false, false, false, false, false, false, false, false, false, false, true , false, false, false, false, false, false, false, false, false, true , false, false, false, false, false, false, false, true , false, false, false, false, false, false, false, false, true , false, false, false, false, false, false, false, false, false, false, false, false, false, false, true , false, true , false, true , true , false, false, false, false, false, false, false, false, false, false, false, false, false, false, false, false, false, false, true , false, false, false, false, false, false, false, false, false, false, false, false, false, false, false, false, false, false, false, false, false, false, false, false, false, false, false, false, false, false, false
|false, false, false, false, false, false, false, false, false, false, false, false, false, false, false, false, false, false, false, false, false, false, false, false, false, false, false, false, false, false, false, false, false, false, false, false, false, false, false, false, false, false, false, false, false, false, false, false, false, false, false, false, false, false, false, false, false, false, false, false, false, false, false, false, false, false, false, false, false, false, false, false, false, false, false, false, false, false, false, false, false, false, false, false, false, false, false, false, false, false, false, false, false, false, false, false, false, false, false, false, false, false, false, false, false, false, false, false, false, false, false, false, false, false, false, false, false, false, false, false, false, false, false, false, false, false, false, false, false, false, false, false, false, false, false, false, false, false, false, false, false, false, false, false, false, false, false, false, false, false, false, false
|false, false, false, true , false, false, false, false, true , false, false, false, true , false, false, false, true , true , false, false, false, false, false, false, false, false, false, true , true , true , false, true , false, false, true , false, false, false, false, false, false, false, false, false, false, false, false, false, false, false, false, false, false, false, true , false, false, false, false, false, false, false, false, false, false, false, false, false, false, false, false, false, false, true , false, true , false, false, true , false, false, false, false, false, false, false, false, false, false, false, false, false, false, false, false, false, false, false, false, false, false, true , true , false, false, false, false, false, false, false, false, false, true , false, false, false, false, false, false, false, false, false, false, false, false, false, false, false, false, false, false, false, false, false, false, false, false, false, false, false, false, false, false, false, false, false, false, false, false, false, false, false
|false, false, false, true , true , false, false, false, true , false, false, false, true , false, false, false, true , true , false, false, false, false, false, false, false, false, false, true , true , true , false, true , false, false, true , false, false, false, false, true , false, false, false, false, false, false, false, false, false, false, false, false, false, true , true , false, false, false, false, false, false, false, false, false, false, false, false, false, true , true , false, false, false, true , false, true , false, false, true , false, false, false, false, false, false, false, false, false, false, false, false, false, false, false, false, false, false, false, false, false, false, true , true , false, false, false, false, false, false, false, false, false, true , false, false, false, false, false, false, false, false, false, false, false, false, false, false, true , false, false, false, false, false, false, false, false, false, false, false, false, false, false, false, false, false, false, false, false, false, false, false, false
|false, false, false, true , true , false, false, false, true , false, false, false, true , false, false, false, true , true , false, false, false, false, false, false, false, false, false, true , true , true , false, true , false, false, true , false, false, false, false, true , false, false, false, false, false, false, false, false, false, false, false, false, false, true , true , false, false, false, false, false, false, false, false, false, false, false, false, false, true , true , false, false, false, true , false, true , false, false, true , false, false, false, false, false, false, false, false, false, false, false, false, false, false, false, false, false, false, false, false, false, false, true , true , false, false, false, false, false, false, false, false, false, true , false, false, false, false, false, false, false, false, false, false, false, false, false, false, true , false, false, false, false, false, false, false, false, false, false, false, false, false, false, false, false, false, false, false, false, false, false, false, false
|false, false, false, false, true , false, false, false, false, false, false, false, true , false, false, false, true , true , false, false, false, false, false, false, false, false, false, false, false, true , false, true , false, false, false, false, false, false, false, true , false, false, false, false, false, false, false, false, false, false, false, false, false, true , false, false, false, false, false, false, false, false, false, false, false, false, false, false, true , true , false, false, false, false, false, true , false, false, false, false, false, false, false, false, false, false, false, false, false, false, false, false, false, false, false, false, false, false, false, false, false, false, false, false, false, false, false, false, false, false, false, false, false, false, false, false, false, false, false, false, false, false, false, false, false, false, false, true , false, false, false, false, false, false, false, false, false, false, false, false, false, false, false, false, false, false, false, false, false, false, false, false
|false, false, false, false, false, false, false, false, false, true , true , true , false, false, false, false, false, false, false, false, false, false, false, false, false, false, false, true , false, false, false, false, false, false, false, false, true , false, false, true , false, false, false, false, false, false, false, false, false, true , true , false, false, false, false, true , true , false, false, false, true , false, false, true , false, false, false, false, false, false, false, false, false, false, false, false, false, false, false, false, false, false, false, false, false, false, false, false, false, false, false, false, false, false, false, false, false, false, false, false, true , false, false, false, false, false, false, false, false, false, false, false, false, false, false, false, false, false, false, false, false, true , false, true , true , false, false, false, true , false, true , false, false, false, false, false, false, false, false, false, false, false, false, false, false, false, false, false, false, false, false, false
|false, false, false, false, false, false, false, false, false, true , true , true , false, false, false, false, false, false, false, false, false, false, false, false, false, false, false, true , false, false, false, false, false, false, false, false, true , false, false, true , false, false, false, false, false, false, false, false, false, true , true , false, false, false, false, true , true , false, false, false, true , false, false, true , false, false, false, false, false, false, false, false, false, false, false, false, false, false, false, false, false, false, false, false, false, false, false, false, false, false, false, false, false, false, false, false, false, false, false, false, true , false, false, false, false, false, false, false, false, false, false, false, false, false, false, false, false, false, false, false, false, true , false, true , true , false, false, false, true , false, true , false, false, false, false, false, false, false, false, false, false, false, false, false, false, false, false, false, false, false, false, false
|false, false, false, false, false, false, false, false, false, true , true , true , false, false, false, false, false, false, false, false, false, false, false, false, false, false, false, true , false, false, false, false, false, false, false, false, true , false, false, true , false, false, false, false, false, false, false, false, false, true , true , false, false, false, false, true , true , false, false, false, true , false, false, true , false, false, false, false, false, false, false, false, false, false, false, false, false, false, false, false, false, false, false, false, false, false, false, false, false, false, false, false, false, false, false, false, false, false, false, false, true , false, false, false, false, false, false, false, false, false, false, false, false, false, false, false, false, false, false, false, false, true , false, true , true , false, false, false, true , false, true , false, false, false, false, false, false, false, false, false, false, false, false, false, false, false, false, false, false, false, false, false
|false, false, false, false, false, false, false, false, false, false, true , false, false, false, false, false, false, false, false, false, false, false, false, false, false, false, false, false, false, false, false, false, false, false, false, false, false, false, false, false, false, false, false, false, false, false, false, false, false, false, false, false, false, false, false, false, false, false, false, false, false, false, false, true , false, false, false, false, false, false, false, false, false, false, false, false, false, false, false, false, false, false, false, false, false, false, false, false, false, false, false, false, false, false, false, false, false, false, false, false, false, false, false, false, false, false, false, false, false, false, false, false, false, false, false, false, false, false, false, false, false, false, false, false, false, false, false, false, true , false, false, false, false, false, false, false, false, false, false, false, false, false, false, false, false, false, false, false, false, false, false, false
|false, false, false, false, false, false, false, false, false, false, false, false, false, false, false, false, false, false, false, false, false, false, false, false, false, false, false, false, false, false, false, false, false, false, false, false, false, false, false, false, false, false, false, false, false, false, false, false, false, false, false, false, false, false, false, false, false, false, false, false, false, false, false, false, false, false, false, false, false, false, false, false, false, false, false, false, false, false, false, false, false, false, false, false, false, false, false, false, false, false, false, false, false, false, false, false, false, false, false, false, false, false, false, false, false, false, false, false, false, false, false, false, false, false, false, false, false, false, false, false, false, false, false, false, false, false, false, false, false, false, false, false, false, false, false, false, false, false, false, false, false, false, false, false, false, false, false, false, false, false, false, false
|true , false, false, false, false, false, false, true , false, false, false, false, false, false, false, false, false, false, true , false, true , false, false, false, true , false, false, false, false, false, false, false, false, false, false, false, true , false, false, false, false, false, false, false, false, false, false, false, true , false, false, false, false, false, true , false, false, true , false, false, false, false, false, false, false, false, false, false, false, false, true , false, true , false, false, false, false, false, false, false, false, false, false, false, false, false, false, false, false, false, false, false, false, false, false, false, false, false, false, false, false, false, true , true , false, false, false, false, false, false, false, false, false, false, true , false, false, false, false, false, true , false, false, false, false, false, false, false, false, false, false, false, false, false, false, false, false, false, false, false, false, false, true , false, false, true , false, false, false, false, false, false
|true , false, false, false, false, false, false, true , false, false, false, false, false, false, false, false, false, false, true , false, true , false, false, false, true , false, false, false, false, false, false, false, false, false, false, false, true , false, false, false, false, false, false, false, false, false, false, false, true , false, false, false, false, false, true , false, false, true , false, false, false, false, false, false, false, false, false, false, false, false, true , false, true , false, false, false, false, false, false, false, false, false, false, false, false, false, false, false, false, false, false, false, false, false, false, false, false, false, false, false, false, false, true , true , false, false, false, false, false, false, false, false, false, false, true , false, false, false, false, false, true , false, false, false, false, false, false, false, false, false, false, false, false, false, false, false, false, false, false, false, false, false, true , false, false, true , false, false, false, false, false, false
|true , false, false, false, false, false, false, true , false, false, false, false, false, false, false, false, false, false, true , false, true , false, false, false, true , false, false, false, false, false, false, false, false, false, false, false, true , false, false, false, false, false, false, false, false, false, false, false, true , false, false, false, false, false, true , false, false, true , false, false, false, false, false, false, false, false, false, false, false, false, true , false, true , false, false, false, false, false, false, false, false, false, false, false, false, false, false, false, false, false, false, false, false, false, false, false, false, false, false, false, false, false, true , true , false, false, false, false, false, false, false, false, false, false, true , false, false, false, false, false, true , false, false, false, false, false, false, false, false, false, false, false, false, false, false, false, false, false, false, false, false, false, true , false, false, true , false, false, false, false, false, false
|false, false, false, false, false, false, false, false, false, false, false, false, true , false, false, false, false, false, false, false, true , false, false, false, true , false, false, false, false, false, false, true , false, false, false, false, false, false, false, false, false, false, false, false, false, false, false, false, false, false, false, false, false, false, false, false, false, false, false, false, false, false, false, false, false, false, false, false, false, false, false, false, false, true , false, false, false, false, false, false, false, false, false, false, false, false, true , false, false, false, false, false, true , false, false, true , true , false, false, false, false, false, false, false, false, false, false, false, true , false, false, false, false, false, false, false, false, false, false, false, true , false, false, false, false, false, false, false, false, false, false, false, false, false, true , true , false, true , false, false, false, false, false, false, false, false, false, false, true , false, false, false
|false, false, false, false, false, false, false, false, false, false, false, false, true , false, false, false, false, false, false, false, true , false, false, false, true , false, false, false, false, false, false, true , false, false, false, false, false, false, false, false, false, false, false, false, false, false, false, false, false, false, false, false, false, false, false, false, false, false, false, false, false, false, false, false, false, false, false, false, false, false, false, false, false, true , false, false, false, false, false, false, false, false, false, false, false, false, true , false, false, false, false, false, true , false, false, true , true , false, false, false, false, false, false, false, false, false, false, false, true , false, false, false, false, false, false, false, false, false, false, false, true , false, false, false, false, false, false, false, false, false, false, false, false, false, true , true , false, true , false, false, false, false, false, false, false, false, false, false, true , false, false, false
|false, false, false, false, false, false, false, false, false, false, false, false, true , false, false, false, false, false, false, false, true , false, false, false, true , false, false, false, false, false, false, true , false, false, false, false, false, false, false, false, false, false, false, false, false, false, false, false, false, false, false, false, false, false, false, false, false, false, false, false, false, false, false, false, false, false, false, false, false, false, false, false, false, true , false, false, false, false, false, false, false, false, false, false, false, false, true , false, false, false, false, false, true , false, false, true , true , false, false, false, false, false, false, false, false, false, false, false, true , false, false, false, false, false, false, false, false, false, false, false, true , false, false, false, false, false, false, false, false, false, false, false, false, false, true , true , false, true , false, false, false, false, false, false, false, false, false, false, true , false, false, false
|false, false, false, false, false, false, false, false, false, false, false, false, false, false, false, false, false, false, false, false, false, false, false, false, false, false, false, false, false, false, false, false, false, false, false, false, false, false, false, false, false, false, false, false, false, false, false, false, false, false, false, false, false, false, false, false, false, false, false, false, false, false, false, false, false, false, false, false, false, false, false, false, false, false, false, false, false, false, false, false, false, false, false, false, false, false, false, false, false, false, false, false, false, false, false, false, false, false, false, false, false, false, false, false, false, false, false, false, false, false, false, false, false, false, false, false, false, false, false, false, false, false, false, false, false, false, false, false, false, false, false, false, true , false, false, false, false, false, false, false, false, false, false, false, false, false, false, false, false, false, false, false
|false, false, false, false, false, false, false, false, false, false, false, false, false, false, false, false, false, false, true , true , true , false, false, false, true , false, false, false, false, false, false, false, false, false, false, false, false, false, false, false, false, false, false, false, false, true , false, false, false, false, false, false, false, false, false, false, false, false, false, false, false, false, false, false, false, false, false, false, false, false, true , false, false, false, false, false, false, false, false, false, false, false, false, false, false, false, false, false, false, false, false, false, false, false, false, false, false, false, false, false, false, false, false, false, false, false, false, false, true , false, false, false, false, false, false, false, false, false, false, false, false, false, false, false, true , false, false, false, false, false, false, false, true , false, true , false, false, false, true , false, true , false, false, false, false, false, false, false, false, false, false, false
|false, false, false, false, true , false, false, false, false, false, false, false, true , false, false, true , false, false, true , true , true , false, false, false, true , false, false, false, false, false, false, false, false, false, false, false, false, false, true , false, false, false, false, false, false, true , false, false, false, false, false, false, false, false, false, false, false, false, false, false, false, false, false, false, false, false, false, false, false, false, true , false, false, false, false, false, false, false, false, false, false, false, false, false, false, false, false, false, false, false, false, false, false, false, false, false, false, false, false, false, false, false, false, false, false, false, false, false, true , false, false, false, false, false, false, false, true , false, false, false, false, false, false, false, true , false, false, false, false, false, false, false, true , false, true , false, true , false, true , false, true , false, true , false, false, false, false, true , false, false, false, false
|false, false, false, false, true , false, false, false, false, false, false, false, true , false, false, true , false, false, true , true , true , false, false, false, true , false, false, false, false, false, false, false, false, false, false, false, false, false, true , false, false, false, false, false, false, true , false, false, false, false, false, false, false, false, false, false, false, false, false, false, false, false, false, false, false, false, false, false, false, false, true , false, false, false, false, false, false, false, false, false, false, false, false, false, false, false, false, false, false, false, false, false, false, false, false, false, false, false, false, false, false, false, false, false, false, false, false, false, true , false, false, false, false, false, false, false, true , false, false, false, false, false, false, false, true , false, false, false, false, false, false, false, false, false, true , false, true , false, true , false, true , false, true , false, false, false, false, true , false, false, false, false
|false, false, false, false, true , false, false, false, false, false, false, false, true , false, false, true , false, false, true , true , false, false, false, false, true , false, false, false, false, false, false, false, false, false, false, false, false, false, true , false, false, false, false, false, false, false, false, false, false, false, false, false, false, false, false, false, false, false, false, false, false, false, false, false, false, false, false, false, false, false, false, false, false, false, false, false, false, false, false, false, false, false, false, false, false, false, false, false, false, false, false, false, false, false, false, false, false, false, false, false, false, false, false, false, false, false, false, false, true , false, false, false, false, false, false, false, true , false, false, false, false, false, false, false, false, false, false, false, false, false, false, false, false, false, true , false, true , false, true , false, false, false, true , false, false, false, false, true , false, false, false, false
|false, false, false, false, false, false, false, false, false, false, true , false, false, false, false, true , false, false, false, false, false, false, false, false, false, false, false, false, false, false, false, true , false, false, false, false, false, true , true , false, false, true , false, false, false, false, false, false, false, false, true , false, false, false, false, true , false, false, false, false, false, true , false, false, false, false, false, false, false, false, false, false, false, false, false, false, false, false, false, true , false, false, false, false, false, false, true , false, false, true , false, false, false, false, false, false, false, true , false, false, false, false, false, false, false, false, false, false, false, false, false, false, false, false, false, false, true , false, false, false, false, false, false, true , false, false, false, false, false, false, false, false, false, false, false, false, false, false, true , false, false, false, true , false, false, false, false, false, false, false, false, false
|false, false, false, false, false, false, false, false, false, false, true , false, false, false, false, true , false, false, false, false, false, false, false, false, false, false, false, false, false, false, false, true , false, false, false, false, false, true , true , false, false, true , false, false, false, false, false, false, false, false, true , false, false, false, false, true , false, false, false, false, false, true , false, false, false, false, false, false, false, false, false, false, false, false, false, false, false, false, false, true , false, false, false, false, false, false, true , false, false, true , false, false, false, false, false, false, false, true , false, false, false, false, false, false, false, false, false, false, false, false, false, false, false, false, false, false, true , false, false, false, false, false, false, true , false, false, false, false, false, false, false, false, false, false, false, false, false, false, true , false, false, false, true , false, false, false, false, false, false, false, false, false
|false, false, false, false, false, false, false, false, false, false, true , false, false, false, false, true , false, false, false, false, false, false, false, false, false, false, false, false, false, false, false, true , false, false, false, false, false, true , true , false, false, true , false, false, false, false, false, false, false, false, true , false, false, false, false, true , false, false, false, false, false, true , false, false, false, false, false, false, false, false, false, false, false, false, false, false, false, false, false, true , false, false, false, false, false, false, true , false, false, true , false, false, false, false, false, false, false, true , false, false, false, false, false, false, false, false, false, false, false, false, false, false, false, false, false, false, true , false, false, false, false, false, false, true , false, false, false, false, false, false, false, false, false, false, false, false, false, false, true , false, false, false, true , false, false, false, false, false, false, false, false, false
|false, false, false, false, false, false, false, false, false, false, true , false, false, false, false, true , false, false, false, false, false, false, false, false, false, false, false, false, false, false, false, true , false, false, false, false, false, false, false, false, false, false, false, false, false, false, false, false, false, false, false, false, false, false, false, false, false, false, false, false, false, false, false, false, false, false, false, false, false, false, false, false, false, false, false, false, false, false, false, false, false, false, false, false, false, false, false, false, false, false, false, false, false, false, false, false, false, true , false, false, false, false, false, false, false, false, false, false, false, false, false, false, false, false, false, false, false, false, false, false, false, false, false, false, false, false, false, false, false, false, false, false, false, false, false, false, false, false, false, false, false, false, false, false, false, false, false, false, false, false, false, false
|false, false, false, false, false, false, false, false, false, false, false, false, false, false, false, false, false, false, false, false, false, false, false, false, false, false, false, false, false, false, false, false, false, false, false, false, false, false, false, false, false, false, false, false, false, false, false, false, false, false, false, false, false, false, false, false, false, false, false, false, false, false, false, false, false, false, false, false, false, false, false, false, false, false, false, false, false, false, false, false, false, false, false, false, false, false, false, false, false, false, false, false, false, false, false, false, false, false, false, false, false, false, false, false, false, false, false, false, false, false, false, false, false, false, false, false, false, false, false, false, false, false, false, false, false, false, false, false, false, false, false, false, false, false, false, false, false, false, false, false, false, false, false, false, false, false, false, false, false, false, false, false
|true , false, false, false, false, false, false, true , false, false, false, false, false, false, false, false, false, false, false, false, false, false, false, false, false, false, false, false, false, false, false, false, true , false, false, false, false, false, false, false, false, false, false, false, false, false, false, false, false, false, false, false, false, false, false, false, true , false, false, false, false, false, false, false, false, false, false, true , false, false, false, false, false, false, false, false, true , false, false, false, true , false, false, false, false, false, false, false, false, false, false, false, false, false, false, false, false, false, false, false, false, false, false, false, false, false, false, false, false, false, false, false, false, false, false, false, false, false, false, false, false, false, false, false, false, true , false, true , true , false, false, false, false, false, false, true , false, false, false, false, false, false, false, false, false, false, false, false, true , false, false, false
|true , false, false, false, false, false, false, true , false, false, false, false, false, false, false, false, false, false, false, false, false, false, false, false, false, false, false, false, false, false, false, false, true , false, false, false, false, false, false, false, false, false, false, false, false, false, false, false, false, false, false, false, false, false, false, false, true , false, false, false, false, false, false, false, false, false, false, true , false, false, false, false, false, false, false, false, true , false, false, false, true , false, false, false, false, false, false, false, false, false, false, false, false, false, false, false, false, false, false, false, false, false, false, false, false, false, false, false, false, false, false, false, false, false, false, false, false, false, false, false, false, false, false, false, false, true , false, true , true , false, false, false, false, false, false, true , false, false, false, false, false, false, false, false, false, false, false, false, true , false, false, false
|true , false, false, false, true , false, false, true , false, false, false, false, false, false, false, false, false, false, false, false, false, false, false, false, false, false, false, false, false, false, false, false, true , false, false, false, false, false, false, false, false, false, false, false, false, false, false, false, false, false, false, false, false, false, false, false, true , false, false, false, false, false, false, false, false, false, false, true , false, false, false, false, false, false, false, false, true , false, false, false, true , false, false, false, false, false, false, false, false, false, false, false, false, false, false, false, false, false, false, false, false, false, false, false, false, false, false, false, false, false, false, false, false, false, false, false, false, false, false, false, false, false, false, false, false, true , false, true , true , false, false, false, false, false, false, true , false, false, false, false, false, false, false, false, false, false, false, false, true , false, false, false
|false, false, false, false, true , false, false, true , false, false, false, false, false, false, false, false, false, false, false, false, false, false, false, false, false, false, false, false, false, false, false, false, false, false, false, false, false, false, false, false, false, false, false, false, false, false, false, false, false, false, false, false, false, false, false, false, true , false, false, false, false, false, false, false, false, false, false, false, false, false, false, false, false, false, false, true , false, false, false, false, true , false, false, false, false, false, false, false, false, false, false, false, false, false, false, false, false, false, false, false, false, false, false, false, true , false, false, false, false, false, false, false, false, false, false, false, false, false, false, false, false, false, false, false, false, false, false, false, true , false, false, false, false, false, false, false, false, false, false, false, false, false, false, false, false, false, false, false, true , false, false, false
|false, false, false, false, true , false, false, true , false, false, false, false, false, false, false, false, false, false, false, false, false, false, false, false, false, false, false, false, false, false, false, false, false, false, false, false, false, false, false, false, false, false, false, false, false, false, false, false, false, false, false, false, false, false, false, false, true , false, false, false, false, false, false, false, false, false, false, false, false, false, false, false, false, false, false, true , false, false, false, false, true , false, false, false, false, false, false, false, false, false, false, false, false, false, false, false, false, false, false, false, false, false, false, false, true , false, false, false, false, false, false, false, false, false, false, false, false, false, false, false, false, false, false, false, false, false, false, false, true , false, false, false, false, false, false, false, false, false, false, false, false, false, false, false, false, false, false, false, true , false, false, false
|false, false, false, false, false, false, false, true , false, false, false, false, false, false, false, false, false, false, false, false, false, false, false, false, false, false, false, false, false, false, false, false, false, false, false, false, false, false, false, false, false, false, false, false, false, false, false, false, false, false, false, false, false, false, false, false, false, false, false, false, false, false, false, false, false, false, false, false, false, false, false, false, false, false, false, true , false, false, false, false, true , false, false, false, false, false, false, false, false, false, false, false, false, false, false, false, false, false, false, false, false, false, false, false, true , false, false, false, false, false, false, false, false, false, false, false, false, false, false, false, false, false, false, false, false, false, false, false, false, false, false, false, false, false, false, false, false, false, false, false, false, false, false, false, false, false, false, false, true , false, false, false
|false, false, false, false, false, false, false, false, false, false, false, false, false, false, false, false, false, false, false, false, false, false, false, false, false, false, false, false, false, false, false, false, false, false, false, false, false, false, false, false, false, false, false, false, false, false, false, false, false, false, false, false, false, false, false, false, false, false, false, false, false, false, false, false, false, false, false, false, false, false, false, false, false, false, false, false, false, false, false, false, false, false, false, false, false, false, false, false, false, false, false, false, false, false, false, false, false, false, false, false, false, false, false, false, false, false, false, false, false, false, false, false, false, false, false, false, false, false, false, false, false, false, false, false, false, false, false, false, false, false, false, false, false, false, false, false, false, false, false, false, false, false, false, false, false, false, false, false, false, false, false, false
|false, false, false, false, false, false, true , false, false, false, false, false, false, false, false, false, false, false, false, false, false, false, false, false, false, false, false, false, false, false, false, false, false, false, false, false, false, false, false, false, true , false, false, false, true , true , false, false, false, false, false, false, false, false, false, true , false, false, false, true , true , false, false, false, false, false, false, true , false, false, false, false, false, false, false, false, false, false, false, false, false, false, false, false, false, true , false, false, false, false, false, false, false, false, true , false, true , false, true , false, false, false, false, false, false, false, false, false, false, false, false, false, false, false, false, false, false, false, false, false, false, false, false, false, false, false, false, false, false, false, false, false, false, false, false, false, false, false, false, false, false, false, false, false, false, false, false, false, false, false, false, false
|false, false, false, false, false, false, true , false, false, false, false, true , false, false, false, false, false, false, false, false, false, false, false, false, false, false, false, false, false, false, false, false, false, false, false, false, false, false, false, false, true , false, false, false, true , true , false, false, false, true , false, false, false, false, false, true , false, false, false, true , true , false, false, false, false, false, false, true , false, false, false, false, false, false, false, false, false, false, false, false, false, false, false, false, false, true , false, false, false, false, false, false, false, false, true , false, true , false, true , false, false, false, false, false, false, false, false, false, false, false, false, false, false, false, false, false, false, false, false, false, false, false, false, false, false, false, false, true , false, false, false, false, false, false, false, false, false, false, false, false, false, false, false, false, false, false, false, false, false, false, false, false
|false, false, false, false, false, false, true , false, false, false, false, true , false, false, false, false, false, false, false, false, false, false, false, false, false, false, false, false, false, false, false, false, false, false, false, false, false, false, false, false, true , false, false, false, true , true , false, false, false, true , false, false, false, false, false, true , false, false, false, true , true , false, false, false, false, false, false, true , false, false, false, false, false, false, false, false, false, false, false, false, false, false, false, false, false, true , false, false, false, false, false, false, false, false, true , false, true , false, true , false, false, false, false, false, false, false, false, false, false, false, false, false, false, false, false, false, false, false, false, false, false, false, false, false, false, false, false, true , false, false, false, false, false, false, false, false, false, false, false, false, false, false, false, false, false, false, false, false, false, false, false, false
|false, false, false, false, false, false, false, false, true , false, false, true , false, false, false, false, false, false, false, false, false, false, false, false, false, false, false, false, false, false, false, false, false, false, false, false, false, false, false, false, false, true , false, false, true , true , false, false, false, true , false, false, false, false, false, false, false, false, false, true , false, false, false, true , false, false, false, false, false, false, false, false, false, false, false, false, false, false, false, false, false, false, false, false, false, false, false, false, false, false, false, false, false, false, false, false, false, false, false, false, false, false, false, false, false, false, false, false, false, false, false, false, false, false, false, false, false, false, false, false, false, false, false, false, false, false, false, true , false, false, false, false, false, false, false, false, false, false, false, false, false, false, false, false, false, false, false, false, false, false, false, false
|false, false, false, false, false, false, true , false, true , false, false, false, false, false, false, false, false, false, false, false, false, false, false, false, false, false, false, false, false, false, false, false, false, false, false, false, false, false, false, false, false, true , false, false, true , true , false, false, false, false, false, false, false, false, false, false, false, false, false, true , false, false, false, true , false, false, false, false, false, false, false, false, false, false, false, false, false, false, false, false, false, false, false, false, false, false, false, false, false, false, false, false, false, false, false, false, false, false, false, false, false, false, false, false, false, false, false, false, false, false, false, false, false, false, false, false, false, false, false, false, false, false, false, false, false, false, false, false, false, false, true , false, false, false, false, false, false, false, false, false, false, false, false, false, false, false, false, false, false, false, false, false
|false, false, false, false, false, false, true , false, true , false, false, false, false, false, false, false, false, false, false, false, false, false, false, false, false, false, false, false, false, false, false, false, false, false, false, false, false, false, false, false, false, true , false, false, true , true , false, false, false, false, false, false, false, false, false, false, false, false, false, true , false, false, false, true , false, false, false, false, false, false, false, false, false, false, false, false, false, false, false, false, false, false, false, false, false, false, false, false, false, false, false, false, false, false, false, false, false, false, false, false, false, false, false, false, false, false, false, false, false, false, false, false, false, false, false, false, false, false, false, false, false, false, false, false, false, false, false, false, false, false, true , false, false, false, false, false, false, false, false, false, false, false, false, false, false, false, false, false, false, false, false, false
|false, false, false, false, false, false, true , false, false, false, false, false, false, false, false, false, false, false, false, false, false, false, false, false, false, false, false, false, false, false, false, false, false, false, false, false, false, false, false, false, false, false, false, false, false, false, false, false, false, false, false, false, false, false, false, false, false, false, false, false, false, false, false, true , false, false, false, false, false, false, false, false, false, false, false, false, false, false, false, false, false, false, false, false, false, false, false, false, false, false, false, false, false, false, false, false, false, false, false, false, false, false, false, false, false, false, false, false, false, false, false, false, false, false, false, false, false, false, false, false, false, false, false, false, false, false, false, false, false, false, true , false, false, false, false, false, false, false, false, false, false, false, false, false, false, false, false, false, false, false, false, false
|false, false, false, false, false, false, true , false, false, false, false, false, false, false, false, false, false, false, false, false, false, false, false, false, false, false, false, false, false, false, false, false, false, false, false, false, false, false, false, false, false, false, false, false, false, false, false, false, false, false, false, false, false, false, false, false, false, false, false, false, false, false, false, false, false, false, false, false, false, false, false, false, false, false, false, false, false, false, false, false, false, false, false, false, false, false, false, false, false, false, false, false, false, false, false, false, false, false, false, false, false, false, false, false, false, false, false, false, false, false, false, false, false, false, false, false, false, false, false, false, false, false, false, false, false, false, false, false, false, false, false, false, false, false, false, false, false, false, false, false, false, false, false, false, false, false, false, false, false, false, false, false
|];
