% Real instance from AcademiAPP, period 10 (Agosto 2026 - Diciembre 2026).
% Generated by scripts/academiapp/make_instances.py from the CSV
% snapshot. Enrollment caps: room-proxy (the API does not
% publish them); subject resource requirements are inferred from the
% room the campus used. Both are approximations, not campus data.
% Availability repair: none. The schedule the campus ran
% violates the model's hard constraints (teacher clashes 0, rooms double-booked 41, same-cohort overlaps 4, hours taught outside the
% declared availability 38), so
% this instance can be unsatisfiable for reasons present in the data.

Recursos=[Coliseo, LabAlimentos, LabElectronica, LabFisica, Ninguno, PlantaAlimentos, SalaSistemas];
sede=30;
salones=30;
Sc=[25,36,36,42,42,44,37,38,25,53,58,54,55,62,30,40,47,46,39,28,30,30,60,25,25,25,60,30,54,62];
Sr=[PlantaAlimentos, Ninguno, Ninguno, Ninguno, Ninguno, Ninguno, Ninguno, Ninguno, Ninguno, Ninguno, Ninguno, Ninguno, Ninguno, Ninguno, Ninguno, Ninguno, Ninguno, Ninguno, Ninguno, SalaSistemas, SalaSistemas, SalaSistemas, Coliseo, LabAlimentos, LabElectronica, LabFisica, Ninguno, Ninguno, SalaSistemas, SalaSistemas];
N=96;
ini=1;
fin=391;
Asig=391;
Ar=[Ninguno,SalaSistemas,Ninguno,Ninguno,Ninguno,SalaSistemas,Ninguno,Ninguno,Ninguno,Ninguno,Ninguno,Ninguno,SalaSistemas,SalaSistemas,Ninguno,Ninguno,Ninguno,SalaSistemas,Ninguno,SalaSistemas,LabAlimentos,LabAlimentos,Ninguno,Ninguno,Ninguno,Ninguno,LabElectronica,Ninguno,Ninguno,Ninguno,Ninguno,SalaSistemas,SalaSistemas,SalaSistemas,SalaSistemas,SalaSistemas,Ninguno,Ninguno,SalaSistemas,SalaSistemas,SalaSistemas,Ninguno,Ninguno,Ninguno,Ninguno,Ninguno,Ninguno,Ninguno,Ninguno,Ninguno,Ninguno,Ninguno,Ninguno,Ninguno,Ninguno,Ninguno,SalaSistemas,Coliseo,Ninguno,SalaSistemas,Ninguno,Ninguno,Ninguno,Ninguno,Ninguno,Ninguno,SalaSistemas,Ninguno,Ninguno,SalaSistemas,SalaSistemas,LabAlimentos,SalaSistemas,Ninguno,SalaSistemas,SalaSistemas,SalaSistemas,Ninguno,SalaSistemas,SalaSistemas,Ninguno,Ninguno,Ninguno,SalaSistemas,Ninguno,Ninguno,Ninguno,Ninguno,Ninguno,Ninguno,SalaSistemas,Ninguno,Ninguno,SalaSistemas,Ninguno,Ninguno,Ninguno,Ninguno,Ninguno,SalaSistemas,Ninguno,Ninguno,Ninguno,Coliseo,Ninguno,Ninguno,Ninguno,Ninguno,Ninguno,Ninguno,Ninguno,Ninguno,Ninguno,SalaSistemas,Ninguno,SalaSistemas,SalaSistemas,Ninguno,Ninguno,Ninguno,Ninguno,SalaSistemas,Ninguno,Ninguno,Ninguno,Ninguno,Ninguno,Coliseo,Ninguno,Ninguno,Ninguno,SalaSistemas,Ninguno,Ninguno,Ninguno,Ninguno,SalaSistemas,Ninguno,Ninguno,Ninguno,Ninguno,Ninguno,Ninguno,Ninguno,Ninguno,Ninguno,Ninguno,Ninguno,Ninguno,Ninguno,Ninguno,SalaSistemas,SalaSistemas,Ninguno,Ninguno,Ninguno,Ninguno,Ninguno,Ninguno,Ninguno,Ninguno,Ninguno,Ninguno,Ninguno,Ninguno,Ninguno,SalaSistemas,Ninguno,Ninguno,Ninguno,Ninguno,SalaSistemas,Ninguno,Ninguno,Coliseo,Ninguno,LabElectronica,SalaSistemas,LabElectronica,Ninguno,Ninguno,Ninguno,Ninguno,Ninguno,Ninguno,Ninguno,Ninguno,Ninguno,Ninguno,Ninguno,Ninguno,Ninguno,Ninguno,Ninguno,Ninguno,Ninguno,Ninguno,Ninguno,Ninguno,Ninguno,Ninguno,Ninguno,Ninguno,Ninguno,Ninguno,Ninguno,Ninguno,Ninguno,SalaSistemas,SalaSistemas,Ninguno,Ninguno,Ninguno,Ninguno,Ninguno,Ninguno,Ninguno,SalaSistemas,Ninguno,Ninguno,Ninguno,SalaSistemas,Ninguno,Ninguno,Ninguno,SalaSistemas,SalaSistemas,Ninguno,LabAlimentos,LabAlimentos,LabAlimentos,LabAlimentos,LabAlimentos,LabAlimentos,Ninguno,Ninguno,Ninguno,Coliseo,Ninguno,SalaSistemas,SalaSistemas,SalaSistemas,SalaSistemas,Ninguno,Ninguno,Ninguno,Ninguno,Ninguno,Ninguno,Ninguno,Ninguno,Ninguno,SalaSistemas,SalaSistemas,Ninguno,Ninguno,Ninguno,Ninguno,Ninguno,Ninguno,SalaSistemas,Ninguno,Ninguno,Ninguno,SalaSistemas,Ninguno,Ninguno,Ninguno,SalaSistemas,SalaSistemas,Ninguno,Ninguno,Ninguno,Ninguno,SalaSistemas,Ninguno,Ninguno,Ninguno,Ninguno,Ninguno,Ninguno,Ninguno,Ninguno,SalaSistemas,SalaSistemas,Ninguno,Ninguno,Ninguno,Ninguno,Ninguno,Ninguno,Ninguno,Ninguno,Ninguno,Ninguno,Ninguno,Ninguno,Ninguno,Ninguno,SalaSistemas,Ninguno,SalaSistemas,Ninguno,SalaSistemas,Ninguno,Ninguno,SalaSistemas,Ninguno,SalaSistemas,SalaSistemas,Ninguno,SalaSistemas,Ninguno,Ninguno,SalaSistemas,SalaSistemas,Ninguno,Ninguno,Ninguno,SalaSistemas,Ninguno,Ninguno,Ninguno,SalaSistemas,SalaSistemas,SalaSistemas,Ninguno,SalaSistemas,SalaSistemas,Ninguno,Ninguno,Ninguno,Ninguno,Ninguno,Ninguno,Ninguno,SalaSistemas,Ninguno,Ninguno,Ninguno,Ninguno,Ninguno,Ninguno,SalaSistemas,SalaSistemas,Ninguno,Ninguno,SalaSistemas,LabElectronica,Ninguno,Ninguno,Ninguno,Ninguno,SalaSistemas,Ninguno,Ninguno,Ninguno,Ninguno,Ninguno,Ninguno,Ninguno,Ninguno,Coliseo,SalaSistemas,Ninguno,Ninguno,Ninguno,Ninguno,Ninguno,Ninguno,Ninguno,Ninguno,Ninguno,Ninguno,SalaSistemas,Ninguno,Ninguno,Ninguno,Ninguno,Ninguno,Ninguno,Ninguno,Ninguno,Ninguno,Ninguno,Ninguno,Ninguno,Ninguno,Ninguno,SalaSistemas,Ninguno];
Ae=[53,54,36,36,46,62,38,54,58,58,58,58,30,30,36,53,37,62,44,62,25,25,44,42,38,58,25,58,25,58,38,30,62,30,30,30,58,38,30,30,30,25,25,25,54,54,54,36,55,47,47,47,47,47,46,30,54,60,30,30,38,40,40,42,55,60,30,36,36,30,54,25,54,47,28,28,54,42,62,30,36,36,42,28,44,44,42,42,30,44,30,47,47,30,37,36,53,40,46,62,42,46,36,60,40,54,46,46,46,46,38,25,30,62,30,30,62,30,38,62,38,30,40,54,25,55,55,60,53,40,42,54,60,55,30,60,30,47,42,42,30,37,53,40,54,36,25,54,54,36,42,54,30,40,40,36,40,47,40,53,60,36,30,53,44,42,54,25,30,25,42,54,42,42,60,55,25,30,25,47,36,42,42,46,38,38,47,40,36,55,37,42,36,46,54,37,44,44,42,46,37,46,54,54,46,37,36,58,28,28,30,30,55,47,47,47,60,30,38,55,53,30,42,25,62,30,30,55,25,25,25,25,25,25,44,46,60,60,30,30,30,28,30,53,25,30,25,54,25,62,55,58,62,62,36,36,30,42,42,42,28,55,44,60,28,62,36,62,28,54,62,62,36,60,54,53,53,53,55,55,36,46,53,30,30,36,62,54,58,53,38,36,42,58,38,62,38,38,60,54,62,62,38,30,62,62,54,30,30,62,62,54,58,55,54,30,62,62,62,62,62,53,53,62,28,28,55,30,28,38,36,44,62,36,25,37,28,42,38,25,53,25,25,30,54,40,40,62,25,40,40,53,25,62,47,47,55,40,40,46,46,53,60,54,38,60,38,60,58,36,36,40,44,60,54,42,54,36,36,36,54,53,53,38,36,60,42,30,37,30,58];
