% Real instance from AcademiAPP, period 10 (Agosto 2026 - Diciembre 2026).
% Generated by scripts/academiapp/make_instances.py from the CSV
% snapshot. Enrollment caps: room-proxy (the API does not
% publish them); subject resource requirements are inferred from the
% room the campus used. Both are approximations, not campus data.
% Availability repair: none. The schedule the campus ran
% violates the model's hard constraints (teacher clashes 1, rooms double-booked 43, same-cohort overlaps 6, hours taught outside the
% declared availability 37), so
% this instance can be unsatisfiable for reasons present in the data.

diurno = {1, 2, 3, 4, 5, 6, 7, 8, 9, 10, 11, 12, 17, 18, 19, 20, 21, 22, 23, 24, 25, 26, 27, 28, 33, 34, 35, 36, 37, 38, 39, 40, 41, 42, 43, 44, 49, 50, 51, 52, 53, 54, 55, 56, 57, 58, 59, 60, 65, 66, 67, 68, 69, 70, 71, 72, 73, 74, 75, 76, 81, 82, 83, 84, 85, 86, 87, 88, 89, 90, 91, 92};
nocturno = {13, 14, 15, 16, 29, 30, 31, 32, 45, 46, 47, 48, 61, 62, 63, 64, 77, 78, 79, 80, 93, 94, 95, 96};
H = 96;
asignaturas = 391;
docentes = 153;

A=[|2, 6, 1000, 53, 0, 4
|2, 6, 1001, 50, 0, 3
|2, 6, 1002, 50, 0, 3
|2, 6, 1003, 50, 0, 3
|2, 6, 1004, 50, 0, 3
|2, 6, 1005, 51, 0, 3
|1, 6, 1008, 50, 0, 4
|1, 6, 1008, 51, 0, 4
|1, 6, 1009, 50, 0, 3
|1, 6, 1009, 51, 0, 3
|1, 6, 1010, 50, 0, 4
|1, 6, 1010, 51, 0, 4
|1, 6, 1011, 50, 0, 3
|1, 6, 1011, 51, 0, 3
|1, 6, 1012, 50, 0, 3
|1, 6, 1012, 51, 0, 3
|3, 5, 1017, 50, 0, 3
|3, 7, 1020, 51, 0, 3
|3, 7, 1021, 50, 0, 5
|3, 7, 1022, 50, 0, 4
|3, 7, 1023, 50, 0, 3
|3, 7, 1023, 51, 0, 3
|3, 7, 1024, 50, 0, 3
|3, 7, 1026, 50, 0, 3
|8, 6, 1029, 50, 0, 3
|12, 3, 1031, 51, 1, 4
|12, 3, 1032, 51, 1, 7
|12, 3, 1033, 52, 1, 4
|12, 3, 1034, 51, 1, 4
|12, 3, 1035, 50, 1, 4
|1, 7, 1059, 50, 0, 3
|1, 7, 1060, 50, 0, 3
|1, 7, 1061, 50, 0, 3
|1, 7, 1061, 51, 0, 3
|1, 7, 1062, 50, 0, 3
|1, 7, 1063, 52, 0, 3
|5, 8, 1101, 50, 0, 3
|8, 5, 1106, 50, 1, 4
|8, 7, 1107, 51, 1, 4
|8, 7, 1108, 51, 1, 4
|8, 7, 1109, 51, 1, 4
|8, 7, 1110, 51, 1, 4
|12, 4, 1111, 51, 0, 4
|12, 4, 1112, 50, 1, 4
|12, 4, 1113, 50, 1, 4
|12, 4, 1114, 50, 1, 4
|12, 4, 1115, 50, 1, 4
|5, 8, 1117, 50, 0, 3
|4, 7, 1120, 50, 0, 4
|4, 7, 1121, 50, 0, 3
|4, 7, 1122, 50, 0, 3
|4, 7, 1123, 50, 0, 6
|4, 7, 1123, 51, 0, 6
|4, 7, 1124, 50, 0, 3
|4, 7, 1125, 50, 0, 3
|11, 3, 1126, 52, 0, 3
|11, 5, 1127, 51, 0, 4
|11, 5, 1128, 50, 0, 2
|11, 5, 1129, 50, 0, 4
|11, 5, 1131, 50, 0, 3
|11, 5, 1132, 50, 0, 3
|11, 5, 1133, 50, 0, 2
|11, 5, 1133, 51, 0, 2
|11, 5, 1134, 50, 0, 3
|1, 8, 1135, 50, 0, 3
|1, 2, 1137, 51, 0, 3
|1, 8, 1138, 52, 0, 3
|1, 8, 1140, 50, 0, 1
|1, 8, 1140, 51, 0, 1
|1, 8, 1141, 50, 0, 4
|3, 9, 1144, 50, 0, 5
|3, 9, 1145, 50, 0, 4
|3, 9, 1145, 51, 0, 4
|3, 9, 1146, 50, 0, 3
|3, 9, 1147, 50, 0, 3
|3, 9, 1148, 50, 0, 3
|6, 7, 1150, 50, 1, 4
|6, 7, 1152, 50, 1, 4
|6, 7, 1153, 50, 1, 4
|6, 7, 1154, 50, 1, 4
|6, 7, 1155, 50, 1, 4
|6, 8, 1157, 50, 0, 3
|6, 8, 1163, 50, 0, 3
|6, 8, 1164, 50, 0, 3
|6, 8, 1165, 50, 0, 3
|6, 8, 1168, 50, 0, 3
|6, 8, 1169, 50, 0, 3
|13, 1, 1170, 50, 0, 5
|2, 7, 1172, 50, 1, 4
|2, 7, 1173, 50, 1, 4
|2, 7, 1174, 50, 0, 3
|2, 7, 1175, 50, 1, 4
|2, 7, 1176, 50, 1, 4
|2, 7, 1177, 51, 1, 4
|2, 8, 1178, 50, 0, 3
|2, 8, 1179, 50, 0, 3
|2, 8, 1180, 50, 0, 3
|2, 8, 1181, 50, 0, 3
|2, 8, 1182, 50, 0, 3
|2, 8, 1183, 50, 0, 3
|13, 1, 1184, 50, 0, 4
|13, 1, 1185, 50, 0, 6
|13, 1, 1186, 53, 0, 3
|13, 1, 1187, 51, 0, 3
|13, 1, 1188, 50, 0, 3
|12, 5, 1190, 50, 1, 4
|12, 5, 1191, 50, 1, 4
|12, 5, 1192, 50, 1, 4
|12, 5, 1193, 50, 1, 4
|12, 5, 1194, 50, 1, 4
|1, 9, 1221, 52, 0, 3
|1, 9, 1222, 51, 0, 3
|6, 9, 1251, 50, 0, 6
|1, 8, 1253, 50, 0, 3
|1, 9, 1254, 50, 0, 3
|1, 9, 1255, 50, 0, 3
|1, 10, 1256, 50, 0, 3
|1, 1, 1257, 50, 0, 2
|8, 2, 1258, 50, 0, 3
|8, 1, 1259, 50, 1, 3
|8, 5, 1260, 50, 1, 4
|8, 5, 1261, 50, 1, 4
|12, 6, 1262, 50, 1, 4
|12, 6, 1263, 50, 1, 4
|12, 6, 1264, 50, 1, 4
|12, 6, 1265, 50, 1, 4
|12, 6, 1266, 50, 1, 4
|6, 1, 1267, 51, 1, 3
|12, 1, 1268, 51, 1, 3
|6, 7, 1269, 50, 0, 3
|6, 9, 1270, 50, 1, 4
|6, 9, 1271, 50, 1, 4
|6, 9, 1272, 50, 1, 4
|6, 9, 1273, 51, 1, 4
|6, 9, 1274, 51, 0, 3
|6, 9, 1275, 50, 1, 4
|2, 9, 1276, 50, 1, 4
|2, 9, 1277, 52, 1, 4
|2, 9, 1278, 51, 1, 4
|2, 9, 1279, 50, 1, 4
|2, 9, 1280, 50, 0, 3
|2, 9, 1281, 50, 1, 4
|6, 4, 1282, 50, 0, 3
|6, 10, 1283, 50, 0, 3
|6, 10, 1284, 50, 0, 3
|6, 10, 1284, 51, 0, 3
|6, 10, 1285, 50, 0, 3
|2, 10, 1286, 50, 0, 3
|2, 10, 1287, 51, 0, 3
|13, 3, 1288, 50, 0, 3
|13, 3, 1289, 50, 0, 5
|13, 3, 1290, 50, 0, 3
|13, 3, 1291, 50, 0, 4
|13, 3, 1292, 50, 0, 3
|13, 3, 1294, 52, 0, 4
|4, 9, 1295, 50, 0, 3
|4, 9, 1296, 50, 0, 3
|4, 9, 1297, 52, 0, 3
|4, 9, 1298, 50, 0, 3
|4, 9, 1299, 50, 0, 3
|5, 2, 1300, 50, 0, 3
|5, 2, 1301, 51, 0, 3
|11, 1, 1302, 50, 0, 3
|11, 7, 1303, 50, 0, 2
|11, 7, 1304, 50, 0, 3
|11, 7, 1305, 50, 0, 3
|11, 7, 1306, 50, 0, 3
|11, 7, 1307, 50, 0, 3
|11, 7, 1308, 50, 0, 3
|6, 10, 1309, 50, 0, 3
|5, 8, 1310, 50, 0, 3
|1, 1, 2, 53, 0, 5
|5, 8, 271, 50, 0, 3
|5, 8, 273, 50, 0, 2
|3, 2, 290, 53, 0, 3
|3, 2, 291, 53, 0, 5
|3, 2, 293, 54, 0, 6
|3, 2, 295, 50, 0, 3
|4, 2, 318, 50, 0, 4
|4, 2, 319, 50, 0, 3
|4, 2, 320, 50, 0, 3
|4, 2, 321, 50, 0, 4
|4, 2, 321, 51, 0, 4
|4, 2, 322, 50, 0, 3
|1, 3, 483, 52, 0, 6
|1, 3, 483, 53, 0, 6
|4, 2, 484, 50, 0, 3
|5, 4, 495, 50, 0, 4
|5, 2, 497, 50, 0, 3
|5, 2, 498, 50, 0, 3
|5, 4, 499, 50, 0, 4
|5, 4, 500, 50, 0, 4
|5, 2, 501, 50, 0, 3
|5, 6, 502, 50, 0, 4
|5, 6, 503, 50, 0, 4
|5, 2, 504, 50, 0, 3
|5, 6, 505, 50, 0, 4
|5, 6, 506, 50, 0, 4
|5, 4, 511, 50, 0, 3
|5, 6, 512, 50, 0, 3
|5, 4, 513, 50, 0, 3
|11, 1, 519, 52, 0, 5
|11, 1, 520, 50, 0, 6
|11, 1, 520, 51, 0, 6
|11, 1, 521, 50, 0, 3
|11, 1, 523, 50, 0, 3
|11, 1, 524, 52, 0, 3
|4, 3, 526, 53, 0, 4
|4, 3, 529, 51, 0, 6
|4, 3, 529, 52, 0, 6
|4, 3, 533, 50, 0, 4
|4, 3, 533, 51, 0, 4
|4, 3, 534, 50, 0, 3
|4, 3, 535, 50, 0, 3
|4, 3, 536, 50, 0, 3
|4, 3, 537, 50, 0, 3
|1, 4, 539, 50, 0, 5
|1, 4, 541, 50, 0, 4
|8, 3, 551, 50, 1, 4
|8, 4, 552, 50, 0, 4
|8, 4, 553, 50, 0, 3
|8, 4, 554, 50, 0, 3
|8, 4, 555, 52, 0, 3
|8, 4, 556, 50, 0, 4
|1, 4, 557, 51, 0, 4
|1, 4, 558, 50, 0, 3
|1, 4, 558, 51, 0, 3
|1, 4, 559, 52, 0, 4
|3, 5, 624, 50, 0, 5
|3, 5, 624, 51, 0, 5
|3, 5, 626, 50, 0, 3
|3, 5, 626, 51, 0, 3
|3, 5, 627, 50, 0, 4
|3, 5, 627, 51, 0, 4
|3, 5, 628, 50, 0, 4
|3, 5, 629, 53, 0, 2
|3, 5, 629, 54, 0, 2
|1, 1, 63, 52, 0, 3
|1, 1, 64, 52, 0, 2
|1, 1, 66, 50, 0, 3
|1, 1, 66, 51, 0, 3
|1, 1, 67, 52, 0, 3
|1, 1, 67, 53, 0, 3
|2, 2, 698, 50, 0, 3
|2, 2, 699, 51, 0, 3
|1, 1, 70, 53, 0, 4
|2, 2, 700, 51, 0, 3
|2, 2, 701, 50, 0, 3
|2, 2, 702, 50, 0, 3
|2, 4, 704, 51, 0, 3
|2, 4, 705, 56, 0, 4
|2, 4, 706, 51, 0, 3
|2, 4, 707, 51, 0, 3
|2, 4, 708, 50, 0, 3
|2, 4, 709, 50, 0, 3
|2, 4, 710, 50, 0, 3
|2, 1, 711, 51, 1, 4
|2, 1, 712, 51, 1, 4
|2, 1, 713, 51, 1, 4
|2, 1, 714, 51, 1, 4
|2, 1, 716, 51, 1, 4
|2, 1, 717, 51, 0, 3
|2, 3, 718, 55, 1, 4
|1, 2, 72, 52, 0, 5
|2, 3, 720, 51, 1, 4
|2, 3, 721, 51, 0, 3
|2, 3, 722, 50, 1, 4
|2, 3, 723, 50, 0, 3
|2, 3, 724, 51, 1, 4
|6, 3, 725, 54, 1, 4
|6, 1, 726, 50, 1, 4
|6, 1, 727, 50, 1, 4
|6, 3, 728, 50, 1, 4
|1, 2, 73, 54, 0, 4
|6, 1, 730, 50, 0, 3
|6, 3, 731, 50, 0, 3
|6, 3, 732, 50, 0, 3
|6, 3, 733, 50, 1, 4
|6, 3, 734, 50, 1, 4
|6, 1, 735, 50, 1, 4
|6, 1, 736, 50, 1, 4
|6, 3, 737, 50, 1, 4
|6, 4, 739, 55, 0, 4
|1, 2, 74, 56, 0, 3
|1, 2, 74, 57, 0, 3
|6, 2, 741, 50, 0, 3
|6, 2, 742, 51, 0, 3
|6, 2, 743, 50, 0, 3
|6, 4, 744, 50, 0, 3
|6, 4, 745, 50, 0, 3
|6, 4, 746, 50, 0, 3
|6, 2, 747, 50, 0, 3
|6, 2, 748, 50, 0, 3
|6, 4, 749, 50, 0, 3
|6, 4, 750, 50, 0, 3
|1, 2, 76, 51, 0, 4
|1, 2, 76, 52, 0, 4
|1, 2, 76, 53, 0, 4
|1, 2, 786, 51, 0, 5
|1, 4, 787, 51, 0, 3
|8, 2, 789, 50, 0, 5
|8, 3, 791, 50, 1, 4
|8, 3, 792, 50, 1, 4
|8, 3, 793, 52, 0, 3
|8, 1, 794, 50, 1, 6
|8, 1, 795, 50, 1, 3
|8, 1, 797, 50, 1, 4
|8, 1, 797, 51, 1, 4
|8, 1, 798, 50, 1, 4
|8, 1, 798, 51, 1, 4
|8, 2, 799, 50, 0, 5
|1, 3, 80, 53, 0, 3
|8, 2, 801, 50, 0, 4
|8, 2, 801, 51, 0, 4
|8, 2, 802, 54, 0, 3
|8, 2, 802, 55, 0, 3
|1, 3, 82, 50, 0, 5
|1, 3, 83, 52, 0, 2
|1, 3, 83, 53, 0, 2
|8, 6, 836, 50, 0, 3
|1, 3, 84, 50, 0, 3
|12, 1, 855, 51, 1, 2
|12, 1, 858, 51, 1, 7
|12, 1, 859, 50, 1, 4
|4, 2, 860, 50, 0, 6
|4, 2, 860, 51, 0, 6
|1, 5, 878, 50, 0, 4
|1, 5, 879, 51, 0, 3
|1, 5, 881, 51, 0, 3
|1, 5, 882, 52, 0, 3
|1, 5, 883, 51, 0, 4
|3, 5, 890, 54, 0, 4
|3, 2, 915, 55, 0, 3
|3, 2, 916, 52, 0, 5
|1, 2, 923, 54, 0, 3
|2, 5, 930, 50, 1, 4
|1, 5, 936, 50, 0, 4
|8, 2, 937, 50, 0, 3
|8, 3, 939, 51, 1, 4
|8, 4, 940, 50, 0, 4
|8, 5, 941, 51, 1, 4
|8, 5, 943, 50, 1, 4
|8, 6, 946, 51, 0, 3
|8, 6, 948, 52, 0, 3
|8, 6, 949, 50, 0, 3
|12, 1, 950, 52, 1, 4
|12, 2, 951, 51, 1, 6
|12, 2, 952, 52, 1, 4
|12, 2, 953, 50, 0, 3
|12, 2, 954, 50, 1, 4
|12, 2, 955, 50, 1, 4
|8, 6, 959, 50, 0, 3
|4, 5, 960, 50, 0, 3
|4, 5, 961, 50, 0, 4
|4, 5, 962, 50, 0, 4
|4, 5, 962, 51, 0, 4
|4, 5, 963, 50, 0, 3
|4, 5, 964, 50, 0, 3
|4, 5, 964, 51, 0, 3
|4, 5, 965, 50, 0, 4
|4, 5, 965, 51, 0, 4
|6, 2, 966, 56, 0, 3
|12, 1, 967, 50, 0, 3
|6, 5, 969, 55, 1, 4
|6, 5, 970, 50, 0, 3
|6, 5, 971, 50, 1, 4
|6, 5, 972, 50, 0, 3
|6, 5, 973, 50, 1, 4
|11, 3, 974, 52, 0, 4
|6, 5, 975, 50, 1, 4
|6, 5, 976, 50, 1, 4
|11, 3, 978, 50, 0, 4
|11, 3, 979, 50, 0, 3
|11, 3, 980, 50, 0, 4
|6, 6, 981, 52, 0, 4
|11, 3, 982, 50, 0, 4
|6, 6, 985, 50, 0, 3
|6, 6, 986, 50, 0, 3
|6, 6, 987, 50, 0, 3
|6, 6, 988, 50, 0, 3
|6, 6, 989, 50, 0, 3
|6, 6, 990, 50, 0, 3
|2, 2, 991, 57, 0, 3
|2, 2, 992, 51, 0, 3
|2, 3, 993, 50, 1, 4
|2, 5, 994, 56, 0, 4
|2, 5, 995, 51, 1, 4
|2, 5, 996, 50, 1, 4
|2, 5, 997, 50, 1, 4
|2, 5, 998, 50, 1, 4
|2, 5, 999, 50, 1, 4
|];
Da=[{1, 49, 188, 263, 283},
{2, 172, 178, 254},
{3, 78},
{4, 149, 336, 371},
{5, 141},
{6, 94, 142},
{7, 8, 40, 302, 304, 344},
{9, 36, 39, 324, 348},
{10, 38, 117, 243, 284, 285},
{11, 12, 312},
{13, 14, 226, 227, 327},
{15, 242, 307, 309, 330},
{16, 320},
{17, 29, 44, 107},
{18, 65, 105},
{19, 73},
{20, 102, 176},
{21, 22},
{23, 72, 153, 374},
{24, 101, 206},
{25, 82, 111},
{26, 43, 225, 270, 354},
{27, 179, 185, 186},
{28, 343},
{30, 46, 125},
{31, 187},
{32, 67, 70},
{33, 34, 114},
{35, 118},
{37, 162},
{41},
{42},
{45, 323, 349, 351},
{47, 236, 237, 258, 337},
{48, 191},
{50, 158},
{51, 181, 182, 184, 211, 213},
{52},
{53, 156},
{54, 355, 357},
{55, 180, 214},
{56, 119, 143, 384},
{57, 155, 208, 332, 369},
{58, 66, 104, 121},
{59, 372},
{60, 168},
{61, 205},
{62, 63},
{64, 169},
{68, 69},
{71},
{74},
{75},
{76, 257, 286},
{77, 269, 292},
{79, 91, 100, 253, 276, 289},
{80, 113, 146, 251, 364},
{81, 86, 379},
{83, 148, 333},
{84, 90, 137, 380},
{85, 382},
{87, 145},
{88, 177},
{89, 131, 163, 164, 338, 383},
{92},
{93, 147, 271},
{95},
{96, 290, 387},
{97, 248},
{98, 157},
{99, 390},
{103, 250, 335, 353},
{106},
{108, 110, 123},
{109, 375},
{112, 352},
{115},
{116, 308},
{120},
{122},
{124, 129, 151, 341},
{126, 127, 152, 167},
{128, 175, 238},
{130, 268, 362},
{132, 221, 345},
{133, 170},
{134},
{135, 281},
{136, 378},
{138, 388},
{139, 249},
{140, 273},
{144, 267, 389},
{150},
{154, 202},
{159, 183, 356},
{160, 239, 306, 322},
{161, 194},
{165, 207, 373},
{166},
{171, 197},
{173, 196, 198, 199, 200, 247},
{174, 192},
{189, 193, 201},
{190, 272},
{195},
{203, 204},
{209, 325},
{210, 326},
{212, 216},
{215, 264, 299, 347},
{217, 244, 350},
{218, 331},
{219, 246, 274, 318, 319, 340},
{220, 303, 314},
{222, 328},
{223, 342},
{224, 228, 265, 278, 291},
{229, 230},
{231, 232, 235},
{233, 234},
{240, 241},
{245, 295},
{252, 279},
{255, 260},
{256, 293},
{259, 288, 385},
{261, 275},
{262, 280},
{266},
{277},
{282, 294},
{287},
{296, 297, 298, 313},
{300},
{301, 305, 311, 317},
{310, 315, 316},
{321},
{329},
{334},
{339},
{346},
{358, 360},
{359, 361},
{363},
{365, 391},
{366},
{367},
{368, 377},
{370},
{376},
{381},
{386}
];
Ad=[1, 2, 3, 4, 5, 6, 7, 7, 8, 9, 10, 10, 11, 11, 12, 13, 14, 15, 16, 17, 18, 18, 19, 20, 21, 22, 23, 24, 14, 25, 26, 27, 28, 28, 29, 8, 30, 9, 8, 7, 31, 32, 22, 14, 33, 25, 34, 35, 1, 36, 37, 38, 39, 40, 41, 42, 43, 44, 45, 46, 47, 48, 48, 49, 15, 44, 27, 50, 50, 27, 51, 19, 16, 52, 53, 54, 55, 3, 56, 57, 58, 21, 59, 60, 61, 58, 62, 63, 64, 60, 56, 65, 66, 6, 67, 68, 69, 70, 71, 56, 20, 17, 72, 44, 15, 73, 14, 74, 75, 74, 21, 76, 57, 28, 77, 78, 9, 29, 42, 79, 44, 80, 74, 81, 25, 82, 82, 83, 81, 84, 64, 85, 86, 87, 88, 89, 60, 90, 91, 92, 5, 6, 42, 93, 62, 57, 66, 59, 4, 94, 81, 82, 19, 95, 43, 39, 70, 36, 96, 97, 98, 30, 64, 64, 99, 100, 82, 46, 49, 86, 101, 2, 102, 103, 83, 17, 63, 2, 23, 41, 37, 37, 96, 37, 23, 23, 26, 1, 104, 105, 35, 103, 104, 98, 106, 102, 101, 102, 102, 102, 104, 95, 107, 107, 47, 20, 99, 43, 108, 109, 37, 110, 37, 41, 111, 110, 112, 113, 114, 115, 85, 116, 117, 118, 22, 11, 11, 118, 119, 119, 120, 120, 121, 121, 120, 34, 34, 83, 97, 122, 122, 12, 9, 112, 123, 114, 102, 69, 91, 72, 57, 124, 56, 2, 125, 126, 54, 34, 127, 125, 128, 129, 1, 111, 118, 130, 93, 84, 55, 22, 66, 105, 92, 114, 128, 56, 131, 118, 124, 129, 88, 132, 1, 9, 9, 54, 133, 127, 56, 68, 118, 55, 126, 132, 123, 134, 134, 134, 111, 135, 136, 7, 115, 7, 136, 97, 12, 78, 12, 137, 136, 10, 134, 115, 137, 137, 136, 114, 114, 13, 138, 97, 33, 8, 108, 109, 11, 116, 139, 12, 113, 43, 59, 140, 72, 4, 34, 64, 141, 114, 81, 117, 24, 7, 85, 142, 111, 8, 33, 112, 33, 76, 72, 22, 40, 96, 40, 143, 144, 143, 144, 84, 145, 57, 146, 147, 148, 149, 43, 150, 4, 45, 99, 19, 75, 151, 149, 89, 58, 60, 152, 61, 64, 42, 127, 153, 68, 90, 93, 71, 146];
D=[|false, false, false, false, false, false, false, false, false, false, false, false, false, false, false, false, false, false, false, false, false, false, false, false, false, false, false, false, false, false, false, false, false, false, false, false, false, false, false, false, false, false, false, false, false, false, false, false, false, false, false, false, false, false, false, false, false, false, false, false, false, false, false, false, false, false, false, false, false, false, false, false, false, false, false, false, false, false, false, false, true , true , false, false, false, false, false, false, false, false, false, false, false, false, false, false, false, false, false, false, false, false, false, false, false, false, false, false, false, false, false, false, false, false, false, false, false, false, false, false, false, false, false, false, false, false, false, false, false, false, false, false, false, false, false, false, false, false, false, false, false, false, false, false, false, false, false, false, false, false, false, false, false
|true , false, false, true , false, false, false, true , false, false, false, false, false, false, false, false, false, false, true , false, true , false, false, true , false, false, false, false, false, false, false, false, false, false, false, false, true , false, false, true , false, true , false, true , false, false, false, false, false, true , false, false, false, false, false, false, false, false, false, false, false, true , false, false, false, false, true , false, false, false, false, false, false, false, false, false, false, false, false, false, true , true , false, false, false, false, false, false, false, false, false, false, false, false, false, false, false, false, false, false, false, false, false, false, false, false, false, false, false, true , true , false, false, true , false, false, false, false, false, false, false, false, false, false, false, false, false, false, false, false, false, false, false, false, false, true , false, false, false, false, false, false, false, false, false, false, false, false, false, false, true , false, false
|true , false, false, true , false, false, false, true , false, false, false, false, false, false, false, false, false, false, true , false, true , false, false, true , false, false, false, false, false, false, false, false, false, false, false, false, true , false, false, true , false, true , false, true , false, false, false, false, false, true , false, false, false, false, false, false, false, false, false, false, false, true , false, false, false, false, true , false, false, false, false, false, false, false, false, false, false, false, false, false, true , true , false, false, false, false, false, false, false, false, false, false, false, false, false, false, false, false, false, false, false, false, false, false, false, false, false, false, false, true , true , false, false, true , false, false, false, false, false, false, false, false, false, false, false, false, false, false, false, false, false, false, false, false, false, true , false, false, false, false, false, false, false, false, false, false, false, false, false, false, true , false, false
|true , false, false, true , false, false, false, true , false, false, false, false, false, false, false, false, false, false, true , false, true , false, false, true , false, false, false, false, false, false, false, false, false, false, false, false, true , false, false, true , false, true , true , true , false, false, false, false, false, true , false, false, false, false, false, false, false, false, false, false, false, true , false, false, false, false, true , false, false, false, false, false, false, false, false, false, false, false, false, false, true , true , false, false, false, false, false, false, false, false, false, false, false, false, false, false, false, false, true , false, false, false, false, false, false, false, false, false, false, true , true , false, false, true , false, false, false, false, false, false, true , false, false, false, false, false, false, false, false, false, false, false, false, false, false, true , false, false, false, false, false, false, false, false, false, false, false, false, false, false, true , false, false
|false, true , false, false, false, false, false, false, false, false, false, false, false, false, false, false, false, false, true , false, false, false, false, false, false, true , false, false, false, false, false, false, false, false, false, false, false, true , true , false, false, false, true , false, false, false, false, false, false, false, false, false, false, false, false, false, false, false, false, false, false, false, false, false, false, false, false, false, false, false, false, false, false, false, false, false, false, false, false, false, true , true , false, false, false, false, false, false, false, false, false, false, true , false, false, false, true , false, true , false, false, false, false, false, false, false, false, false, false, false, false, false, false, false, false, false, false, false, false, false, true , false, false, false, false, false, false, false, false, false, false, false, false, false, false, true , false, false, false, false, false, false, false, false, false, false, false, false, false, false, true , true , false
|false, true , false, false, false, false, false, false, false, false, false, false, false, false, false, false, false, false, true , false, false, false, false, false, false, true , false, false, false, false, false, false, false, false, false, false, false, true , true , false, false, false, true , false, false, false, false, false, false, false, false, false, false, false, false, false, false, false, false, false, false, false, false, false, false, false, false, false, false, false, false, false, false, false, false, false, false, false, false, false, true , true , false, false, false, false, false, false, false, false, false, false, true , false, false, false, true , false, true , false, false, false, false, false, false, false, false, false, false, false, false, false, false, false, false, false, false, false, false, false, true , false, false, false, false, false, false, false, false, false, false, false, false, false, false, true , false, false, false, false, false, false, false, false, false, false, false, false, false, false, true , true , false
|false, true , false, false, false, false, false, false, false, false, false, false, false, false, false, false, false, false, true , false, false, false, false, false, false, true , false, false, false, false, false, false, false, false, false, false, false, true , true , false, false, false, false, false, false, false, false, false, false, false, false, false, false, false, false, false, false, false, false, false, false, false, false, false, false, false, false, false, false, false, false, false, false, false, false, false, false, false, false, false, true , true , false, false, false, false, false, false, false, false, false, false, true , false, false, false, true , false, false, false, false, false, false, false, false, false, false, false, false, false, false, false, false, false, false, false, false, false, false, false, true , false, false, false, false, false, false, false, false, false, false, false, false, false, false, false, false, false, false, false, false, false, false, false, false, false, false, false, false, false, false, true , false
|false, false, false, false, false, false, false, false, false, false, false, false, false, false, false, false, false, false, false, false, false, false, false, false, false, false, false, false, false, false, false, false, false, false, false, false, false, false, false, false, false, false, false, false, false, false, false, false, false, false, false, false, false, false, false, false, false, false, false, false, false, false, false, false, false, false, false, false, false, false, false, false, false, false, false, false, false, false, false, false, true , true , false, false, false, false, false, false, false, false, false, false, false, false, false, false, false, false, false, false, false, false, false, false, false, false, false, false, false, false, false, false, false, false, false, false, false, false, false, false, false, false, false, false, false, false, false, false, false, false, false, false, false, false, false, false, false, false, false, false, false, false, false, false, false, false, false, false, false, false, false, false, false
|false, false, false, false, false, false, true , false, false, false, false, false, false, false, false, false, true , false, false, false, false, false, false, false, false, true , false, false, false, false, false, false, false, false, false, false, true , false, true , false, false, false, true , false, false, false, false, false, false, false, true , false, false, false, false, false, false, false, false, false, false, false, false, false, false, false, false, false, false, false, false, false, false, false, false, false, false, true , false, false, true , true , false, false, false, false, false, false, false, false, false, false, false, false, false, false, true , false, true , false, false, false, false, false, false, false, false, false, false, false, false, false, false, false, false, false, false, false, false, false, true , false, false, false, false, false, false, false, false, false, false, false, false, false, false, true , false, false, false, false, false, false, true , true , false, false, false, false, false, false, false, false, false
|false, false, false, false, false, false, true , false, false, false, false, false, false, false, false, false, true , false, false, false, false, false, false, false, false, true , true , false, false, false, false, false, false, false, false, false, true , false, true , false, false, false, true , false, false, false, false, false, false, false, true , false, false, false, false, false, false, false, false, true , false, false, false, true , false, false, false, false, false, false, false, false, false, false, false, false, false, true , false, false, true , true , false, false, false, true , false, false, false, false, false, false, false, false, false, false, true , false, true , false, false, false, false, false, false, false, false, false, false, false, true , false, false, false, false, false, true , false, false, false, true , false, true , true , false, false, false, false, false, false, false, false, false, false, false, true , false, false, false, false, false, false, true , true , false, false, false, false, false, false, false, false, false
|false, false, false, false, false, false, true , false, false, false, false, false, false, false, false, false, true , false, false, false, false, false, false, false, false, true , true , false, false, false, false, false, false, false, false, false, true , false, true , false, false, false, true , false, false, false, false, false, false, false, true , false, false, false, false, false, false, false, false, true , false, false, false, true , false, false, false, false, false, false, false, false, false, false, false, false, false, true , false, false, true , true , false, false, false, true , false, false, false, false, false, false, false, false, false, false, true , false, true , false, false, false, false, false, false, false, false, false, false, false, true , false, false, false, false, false, true , false, false, false, true , false, true , true , false, false, false, false, false, false, false, false, false, false, false, true , false, false, false, false, false, false, true , true , false, false, false, false, false, false, false, false, false
|false, false, false, false, false, false, true , false, false, false, false, false, false, false, false, false, false, false, false, false, false, false, false, false, false, false, true , false, false, false, false, false, false, false, false, false, false, false, false, false, false, false, false, false, false, false, false, false, false, false, true , false, false, false, false, false, false, false, false, true , false, false, false, true , false, false, false, false, false, false, false, false, false, false, false, false, false, false, false, false, true , true , false, false, false, true , false, false, false, false, false, false, false, false, false, false, true , false, false, false, false, false, false, false, false, false, false, false, false, false, true , false, false, false, false, false, true , false, false, false, true , false, true , true , false, false, false, false, false, false, false, false, false, false, false, false, false, false, false, false, false, false, false, false, false, false, false, false, false, false, false, false, false
|false, false, false, false, false, false, false, false, false, false, false, false, false, false, false, false, false, false, false, false, false, true , false, false, true , false, false, false, false, false, true , false, true , true , false, false, false, false, false, false, false, false, false, false, false, false, false, false, false, false, false, false, false, true , false, true , true , false, false, false, false, false, false, false, true , false, false, false, false, false, false, false, false, true , false, false, false, false, false, true , true , true , true , false, false, true , false, false, false, true , false, true , true , false, false, false, true , false, false, false, false, false, false, false, false, false, false, false, false, false, true , false, false, true , false, false, false, false, false, false, false, false, false, true , false, false, true , false, false, false, false, false, false, false, false, true , false, false, false, false, false, false, false, false, false, false, false, false, false, false, false, false, false
|false, false, false, false, false, false, false, false, false, false, false, false, false, false, false, false, false, false, false, false, false, true , false, false, true , false, false, false, false, false, true , false, true , true , false, false, false, false, false, false, false, false, false, false, false, false, false, false, false, false, false, false, false, true , false, true , true , false, false, false, false, false, false, false, true , false, false, false, false, false, false, false, false, true , false, false, false, false, false, true , true , true , true , false, false, true , false, false, false, true , false, true , true , false, false, false, true , false, false, false, false, false, false, false, false, false, false, false, false, false, true , false, false, true , false, false, false, false, false, false, false, false, false, true , false, false, true , false, false, false, false, false, false, false, false, true , false, false, false, false, false, false, false, false, false, false, false, false, false, false, false, false, false
|false, false, false, false, false, false, false, false, false, false, false, false, false, false, false, false, false, false, false, false, false, true , false, false, true , false, false, false, false, false, true , false, true , true , false, false, false, false, false, false, false, false, false, false, false, false, false, false, false, false, false, false, false, true , false, true , true , false, false, false, false, false, false, false, true , false, false, false, false, false, false, false, false, true , false, false, false, false, false, true , true , true , true , false, false, true , false, false, false, true , false, true , true , false, false, false, true , false, false, false, false, false, false, false, false, false, false, false, false, false, true , false, false, true , false, false, false, false, false, false, false, false, false, true , false, false, true , false, false, false, false, false, false, false, false, true , false, false, false, false, false, false, false, false, false, false, false, false, false, false, false, false, false
|false, false, false, false, false, false, false, false, false, false, false, false, false, false, false, false, false, false, false, false, false, true , false, false, true , false, false, false, false, false, true , false, true , true , false, false, false, false, false, false, false, false, false, false, false, false, false, false, false, false, false, false, false, true , false, true , true , false, false, false, false, false, false, false, true , false, false, false, false, false, false, false, false, true , false, false, false, false, false, true , true , true , true , false, false, true , false, false, false, true , false, true , true , false, false, false, true , false, false, false, false, false, false, false, false, false, false, false, false, false, true , false, false, true , false, false, false, false, false, false, false, false, false, true , false, false, true , false, false, false, false, false, false, false, false, true , false, false, false, false, false, false, false, false, false, false, false, false, false, false, false, false, false
|false, false, false, false, false, false, false, false, false, false, false, false, false, false, false, false, false, false, false, false, false, false, false, false, false, false, false, false, false, false, false, false, false, false, false, false, false, false, false, false, false, false, false, false, false, false, false, false, false, false, false, false, false, false, false, false, false, false, false, false, false, false, false, false, false, false, false, false, false, false, false, false, false, false, false, false, false, false, false, false, true , true , false, false, false, false, false, false, false, false, false, false, false, false, false, false, false, false, false, false, false, false, false, false, false, false, false, false, false, false, false, false, false, false, false, false, false, false, false, false, false, false, false, false, false, false, false, false, false, false, false, false, false, false, false, false, false, false, false, false, false, false, false, false, false, false, false, false, false, false, false, false, false
|true , false, false, false, false, false, false, false, true , true , true , false, false, false, false, false, true , true , false, false, false, false, true , false, false, false, true , false, false, false, false, false, false, false, false, true , false, false, false, false, false, false, false, false, false, false, false, false, false, false, false, false, false, false, false, false, false, false, false, false, false, false, false, false, false, false, false, false, true , false, false, false, false, false, false, false, false, false, false, false, true , true , false, false, true , false, false, false, false, false, false, false, true , false, true , false, false, false, false, false, true , false, false, false, false, false, false, true , true , false, false, false, true , true , false, false, false, false, true , false, false, false, false, false, false, false, false, false, false, false, false, false, false, false, false, true , false, false, false, true , false, false, false, false, false, false, false, false, false, false, false, false, false
|true , false, false, false, false, false, false, false, true , true , true , false, false, false, false, false, true , true , false, false, false, false, true , false, false, false, true , false, false, false, false, false, false, false, false, true , false, false, false, false, false, false, false, false, false, false, false, false, false, false, false, false, false, false, false, false, false, false, false, false, false, false, false, false, false, false, false, false, true , false, false, false, false, false, false, false, false, false, false, false, true , true , false, false, true , false, false, false, false, false, false, false, true , false, true , false, false, false, false, false, true , false, false, false, false, false, false, true , true , false, false, false, true , true , false, false, false, false, true , false, false, false, false, false, false, false, false, false, false, false, false, false, false, false, false, true , false, false, false, true , false, false, false, false, false, false, false, false, false, false, false, false, false
|true , false, false, false, false, false, false, false, true , true , true , false, false, false, false, false, true , true , false, false, false, false, true , false, false, false, true , false, false, false, false, false, false, false, false, true , false, false, false, false, false, true , false, false, false, false, false, false, false, false, false, false, false, false, false, false, false, false, false, false, false, false, false, false, false, false, false, false, true , false, false, false, false, false, false, false, false, false, false, false, true , true , false, false, true , false, false, false, false, false, false, false, true , false, true , false, false, false, false, false, true , false, false, false, false, false, false, true , true , false, false, false, true , true , false, false, false, false, true , false, false, false, false, false, false, false, false, false, false, false, false, false, false, false, false, true , false, false, false, true , false, false, false, false, false, false, false, false, false, false, false, false, false
|false, true , false, false, false, false, false, false, true , true , true , false, false, false, false, false, false, true , true , false, false, false, true , false, false, false, false, false, false, false, false, false, false, false, false, true , false, false, false, false, false, true , false, false, false, false, true , false, true , false, false, false, false, false, false, false, false, false, false, false, false, false, true , false, false, false, false, true , false, false, false, false, false, false, false, false, false, false, false, false, true , true , false, false, false, false, false, false, false, false, false, false, false, false, true , false, false, true , false, false, true , true , false, false, false, false, false, true , true , false, false, false, true , true , false, false, false, false, true , false, false, false, false, false, false, true , false, false, false, false, false, false, false, false, false, true , false, false, false, false, false, false, false, false, false, false, false, false, false, false, false, true , false
|false, true , false, false, false, false, false, false, true , true , true , false, false, false, false, false, false, true , true , false, false, false, true , false, false, false, false, false, false, false, false, false, false, false, false, true , false, false, false, false, false, true , false, false, false, false, true , false, true , false, false, false, false, false, false, false, false, false, false, false, false, false, true , false, false, false, false, true , false, false, false, false, false, false, false, false, false, false, false, false, true , true , false, false, false, false, false, false, false, false, false, false, false, false, true , false, false, true , false, false, true , true , false, false, false, false, false, true , true , false, false, false, true , true , false, false, false, false, true , false, false, false, false, false, false, true , false, false, false, false, false, false, false, false, false, true , false, false, false, false, false, false, false, false, false, false, false, false, false, false, false, true , false
|false, true , false, false, false, false, false, false, true , false, false, false, false, false, false, false, false, true , true , false, false, false, true , false, false, false, false, false, false, false, false, false, false, false, false, true , false, false, false, false, false, false, false, false, false, false, true , false, true , false, false, false, false, false, false, false, false, false, false, false, false, false, true , false, false, false, false, true , false, false, false, false, false, false, false, false, false, false, false, false, true , true , false, false, false, false, false, false, false, false, false, false, false, false, true , false, false, true , false, false, false, true , false, false, false, false, false, true , true , false, false, false, false, false, false, false, false, false, false, false, false, false, false, false, false, true , false, false, false, false, false, false, false, false, false, false, false, false, false, false, false, false, false, false, false, false, false, false, false, false, false, true , false
|false, false, false, false, false, false, false, false, false, false, false, false, false, false, false, false, false, false, false, false, false, false, false, false, false, false, false, false, false, false, false, false, false, false, false, false, false, false, false, false, false, false, false, false, false, false, false, false, false, false, false, false, false, false, false, false, false, false, false, false, false, false, false, false, false, false, false, false, false, false, false, false, false, false, false, false, false, false, false, false, true , true , false, false, false, false, false, false, false, false, false, false, false, false, false, false, false, false, false, false, false, false, false, false, false, false, false, false, false, false, false, false, false, false, false, false, false, false, false, false, false, false, false, false, false, false, false, false, false, false, false, false, false, false, false, false, false, false, false, false, false, false, false, false, false, false, false, false, false, false, false, false, false
|false, false, false, false, false, false, false, false, false, true , true , false, false, false, false, false, true , false, true , false, false, true , false, false, false, false, false, false, false, false, false, false, false, false, false, false, false, false, false, false, false, false, true , false, false, false, true , false, true , false, false, false, false, false, false, false, false, false, false, false, false, false, true , false, false, false, false, false, false, true , true , true , false, false, false, false, false, false, false, false, true , true , false, false, false, false, false, false, false, false, false, false, false, false, false, false, false, true , false, false, false, true , false, false, false, false, false, false, false, false, false, false, false, false, false, false, false, false, false, true , false, false, false, false, false, false, false, false, false, false, false, false, false, false, false, false, false, false, true , false, false, false, false, false, false, false, false, false, false, false, false, false, false
|false, false, true , false, false, false, false, false, false, true , true , false, false, false, false, false, true , false, true , false, false, true , false, false, false, false, false, true , false, false, false, false, false, false, false, false, true , false, false, false, false, false, true , false, false, false, true , false, true , false, false, false, false, false, false, false, true , true , false, false, true , false, true , true , false, false, false, false, false, true , true , true , false, false, false, false, false, false, false, false, true , true , false, false, false, false, false, false, false, false, false, false, false, false, false, false, false, true , false, false, false, true , false, false, false, false, false, false, false, false, true , false, false, false, false, false, false, false, false, true , false, true , false, false, false, false, true , false, false, false, false, false, false, false, false, false, false, false, true , false, false, false, false, false, false, false, false, false, false, false, false, false, false
|false, false, true , false, false, false, false, false, false, true , true , false, false, false, false, false, true , false, true , false, false, true , false, false, false, false, false, true , false, false, false, false, false, false, false, false, true , false, false, false, false, false, true , false, false, false, true , false, true , false, false, false, false, false, false, false, true , true , false, false, true , false, true , true , false, false, false, false, false, true , true , true , false, false, false, false, false, false, false, false, true , true , false, false, false, false, false, false, false, false, false, false, false, false, false, false, false, true , false, false, false, true , false, false, false, false, false, false, false, false, true , false, false, false, false, false, false, false, false, true , false, true , false, false, false, false, true , false, false, false, false, false, false, false, false, false, false, false, true , false, false, false, false, false, false, false, false, false, false, false, false, false, false
|false, false, true , false, false, false, false, false, false, false, false, false, false, false, false, false, false, false, true , false, false, false, false, false, false, false, false, true , false, false, false, false, false, false, false, false, true , false, false, false, false, false, true , false, false, false, false, false, true , false, false, false, false, false, false, false, true , true , false, false, true , false, false, true , false, false, false, false, false, false, true , false, false, false, false, false, false, false, false, false, true , true , false, false, false, false, false, false, false, false, false, false, false, false, false, false, false, true , false, false, false, true , false, false, false, false, false, false, false, false, true , false, false, false, false, false, false, false, false, true , false, true , false, false, false, false, true , false, false, false, false, false, false, false, false, false, false, false, false, false, false, false, false, false, false, false, false, false, false, false, false, false, false
|true , false, true , true , false, false, false, true , false, false, false, false, false, true , false, false, false, false, false, false, false, true , false, true , true , false, false, false, false, false, false, true , false, false, false, false, false, false, false, false, false, false, false, false, false, false, false, false, false, false, false, false, false, false, false, false, false, false, false, false, false, false, false, true , false, false, false, false, false, false, false, false, false, false, false, false, false, false, false, false, true , true , false, false, false, false, false, true , true , true , false, false, true , false, false, false, false, false, false, false, false, false, false, false, false, false, false, false, false, false, false, false, false, false, true , false, false, false, false, false, false, false, false, false, true , false, false, false, false, false, false, false, false, false, false, true , false, false, false, false, false, true , false, false, false, false, false, false, false, false, false, false, false
|true , false, true , true , false, false, false, true , false, false, false, false, false, true , false, false, false, false, false, false, false, true , false, true , true , false, false, false, false, false, false, true , false, false, false, false, false, false, false, false, false, false, false, false, false, false, false, false, false, false, false, false, false, false, false, false, false, false, false, false, false, false, false, true , false, false, false, false, false, false, false, false, false, false, false, false, false, false, false, false, true , true , false, false, false, false, false, true , true , true , false, false, true , false, false, false, false, false, false, false, false, false, false, false, false, false, false, false, false, false, false, false, false, false, true , false, false, false, false, false, false, false, false, false, true , false, false, false, false, false, false, false, false, false, false, true , false, false, false, false, false, true , false, false, false, false, false, false, false, false, false, false, false
|true , false, true , true , false, false, false, true , false, false, false, false, false, true , false, false, false, false, false, false, false, true , false, true , true , false, false, false, false, false, false, true , false, false, false, false, false, false, false, false, false, false, false, false, false, false, false, false, false, false, false, false, false, false, false, false, false, false, false, false, false, false, false, true , false, false, false, false, false, false, false, false, false, false, false, false, false, false, false, false, true , true , false, false, false, false, false, true , true , true , false, false, true , false, false, false, false, false, false, false, false, false, false, false, false, false, false, false, false, false, false, false, false, false, true , false, false, false, false, false, false, false, false, false, true , false, false, false, false, false, false, false, false, false, false, true , false, false, false, false, false, true , false, false, false, false, false, false, false, false, false, false, false
|true , false, true , true , false, false, false, true , false, false, false, false, false, true , false, false, false, false, false, false, false, true , false, true , true , false, false, false, false, false, false, true , false, false, false, false, false, false, false, false, false, false, false, false, false, false, false, false, false, false, false, false, false, false, false, false, false, false, false, false, false, false, false, true , false, false, false, false, false, false, false, false, false, false, false, false, false, false, false, false, true , true , false, false, false, false, false, true , true , true , false, false, true , false, false, false, false, false, false, false, false, false, false, false, false, false, false, false, false, false, false, false, false, false, true , false, false, false, false, false, false, false, false, false, true , false, false, false, false, false, false, false, false, false, false, true , false, false, false, false, false, true , false, false, false, false, false, false, false, false, false, false, false
|false, false, false, false, false, false, false, false, false, false, false, false, false, false, false, false, false, false, false, false, false, false, false, false, false, false, false, false, false, false, false, false, false, false, false, false, false, false, false, false, false, false, false, false, false, false, false, false, false, false, false, false, false, false, false, false, false, false, false, false, false, false, false, false, false, false, false, false, false, false, false, false, false, false, false, false, false, false, false, false, true , true , false, false, false, false, false, false, false, false, false, false, false, false, false, false, false, false, false, false, false, false, false, false, false, false, false, false, false, false, false, false, false, false, false, false, false, false, false, false, false, false, false, false, false, false, false, false, false, false, false, false, false, false, false, false, false, false, false, false, false, false, false, false, false, false, false, false, false, false, false, false, false
|false, false, false, false, false, false, true , false, true , false, false, false, false, false, false, false, false, false, true , true , false, false, false, false, false, false, false, false, true , false, false, false, false, false, true , false, true , false, false, false, false, false, true , false, false, false, false, true , false, false, false, false, false, false, false, true , false, false, false, false, false, false, false, false, false, false, false, false, false, false, false, false, false, false, false, false, false, false, false, false, true , true , false, true , false, false, false, false, false, false, false, false, false, false, true , false, false, false, false, false, false, false, false, false, true , true , false, false, false, false, false, false, false, false, false, false, false, false, false, true , false, false, false, false, false, false, false, false, false, false, false, false, false, true , false, false, true , false, false, true , false, false, false, false, false, false, false, false, false, false, false, false, false
|false, false, false, false, false, false, true , false, true , false, false, false, false, false, false, false, false, false, true , true , false, false, false, false, false, false, false, false, true , false, false, false, false, false, true , false, true , false, false, false, false, false, true , false, false, false, false, true , false, false, false, false, false, false, false, true , false, false, false, false, false, false, false, false, false, false, false, false, false, false, false, false, false, false, false, false, false, false, false, false, true , true , false, true , false, false, false, false, false, false, false, false, false, false, true , false, false, false, false, false, false, false, false, false, true , true , false, false, false, false, false, false, false, false, false, false, false, false, false, true , false, false, false, false, false, false, false, false, false, false, false, false, false, true , false, false, true , false, false, true , false, false, false, false, false, false, false, false, false, false, false, false, false
|false, false, false, false, false, false, true , false, true , false, false, false, false, false, false, false, false, false, true , true , false, false, false, false, false, false, false, false, true , false, false, false, false, false, true , false, true , false, false, false, false, false, true , false, false, false, false, true , false, false, false, true , false, false, false, true , false, false, false, false, false, false, false, false, false, false, false, false, false, false, false, false, false, false, false, false, false, false, false, false, true , true , false, true , false, false, false, false, false, false, false, false, false, false, true , false, false, false, true , false, false, false, false, false, true , true , false, false, false, false, false, false, false, false, false, false, false, false, false, true , false, false, false, false, false, false, false, false, false, false, false, false, false, true , false, false, true , false, false, true , false, false, false, false, false, false, false, false, false, false, false, false, false
|false, true , false, false, false, false, true , false, false, false, false, false, false, false, true , false, false, false, false, true , true , false, false, false, false, false, false, false, true , false, false, false, false, false, true , false, false, false, false, false, false, false, true , false, false, false, false, true , false, false, false, true , false, false, false, true , false, false, false, false, false, false, true , false, false, false, false, true , false, false, false, false, false, false, false, false, false, false, false, false, true , true , false, false, false, false, false, false, true , false, false, false, false, false, true , false, false, false, true , false, false, true , false, false, false, true , false, false, false, false, false, true , false, false, false, false, false, false, false, true , false, false, false, false, true , false, false, false, false, false, false, false, false, true , false, false, true , false, false, false, false, false, false, false, false, false, false, false, false, false, false, false, false
|false, true , false, false, false, false, true , false, false, false, false, false, false, false, true , false, false, false, false, true , true , false, false, false, false, false, false, false, true , false, false, false, false, false, true , false, false, false, false, false, false, false, true , false, false, false, false, true , false, false, false, true , false, false, false, true , false, false, false, false, false, false, true , false, false, false, false, true , false, false, false, false, false, false, false, false, false, false, false, false, true , true , false, false, false, false, false, false, true , false, false, false, false, false, true , false, false, false, true , false, false, true , false, false, false, true , false, false, false, false, false, true , false, false, false, false, false, false, false, true , false, false, false, false, true , false, false, false, false, false, false, false, false, true , false, false, true , false, false, false, false, false, false, false, false, false, false, false, false, false, false, false, false
|false, true , false, false, false, false, false, false, false, false, false, false, false, false, true , false, false, false, false, true , true , false, false, false, false, false, false, false, false, false, false, false, false, false, false, false, false, false, false, false, false, false, true , false, false, false, false, false, false, false, false, false, false, false, false, true , false, false, false, false, false, false, true , false, false, false, false, true , false, false, false, false, false, false, false, false, false, false, false, false, true , true , false, false, false, false, false, false, true , false, false, false, false, false, true , false, false, false, false, false, false, true , false, false, false, true , false, false, false, false, false, true , false, false, false, false, false, false, false, true , false, false, false, false, true , false, false, false, false, false, false, false, false, false, false, false, true , false, false, false, false, false, false, false, false, false, false, false, false, false, false, false, false
|false, false, false, false, false, false, false, false, false, false, false, false, false, false, false, false, false, false, false, false, false, false, false, false, false, false, false, false, false, false, false, false, false, false, false, false, false, false, false, false, false, false, false, false, false, false, false, false, false, false, false, false, false, false, false, false, false, false, false, false, false, false, false, false, false, false, false, false, false, false, false, false, false, false, false, false, false, false, false, false, true , true , false, false, false, false, false, false, false, false, false, false, false, false, false, false, false, false, false, false, false, false, false, false, false, false, false, false, false, false, false, false, false, false, false, false, false, false, false, false, false, false, false, false, false, false, false, false, false, false, false, false, false, false, false, false, false, false, false, false, false, false, false, false, false, false, false, false, false, false, false, false, false
|false, false, false, false, false, false, false, false, false, false, false, false, false, false, true , false, false, false, false, false, false, false, true , false, false, false, false, false, false, false, false, false, false, false, false, false, false, false, false, false, false, false, true , false, false, false, false, false, false, false, false, false, false, true , false, false, false, false, false, false, false, false, true , false, false, false, false, false, false, false, false, false, false, false, true , false, false, false, false, false, true , true , false, false, false, false, false, false, false, false, false, false, false, false, false, false, false, false, false, true , false, true , false, false, false, false, false, false, false, false, true , false, false, false, false, false, false, true , false, false, false, false, false, false, false, false, false, false, false, false, false, false, false, false, false, false, false, false, false, false, false, false, false, false, false, false, false, false, false, false, false, false, false
|false, false, false, false, false, true , true , false, false, false, false, true , false, false, true , false, false, false, false, false, false, false, true , false, false, false, false, true , false, false, false, false, false, false, false, false, false, false, false, false, false, true , true , true , false, false, false, false, false, false, false, false, false, true , true , true , false, false, true , false, false, false, true , true , false, true , false, false, false, false, false, false, false, true , true , false, false, false, false, false, true , true , false, false, false, false, false, false, false, false, false, false, false, false, false, false, false, false, false, true , false, true , false, false, false, false, false, false, false, false, true , true , false, true , false, false, false, true , false, false, false, false, false, false, false, false, false, false, false, false, false, false, false, false, false, false, false, false, false, false, false, false, false, false, false, false, false, false, false, false, false, false, false
|false, false, false, false, false, true , true , false, false, false, false, true , false, false, true , false, false, false, false, false, false, false, true , false, false, false, false, true , false, false, false, false, false, false, false, false, false, false, false, false, false, true , true , true , false, false, false, false, false, false, false, false, false, true , true , true , false, false, true , false, false, false, true , true , false, true , false, false, false, false, false, false, false, true , true , false, false, false, false, false, true , true , false, false, false, false, false, false, false, false, false, false, false, false, false, false, false, false, false, true , false, true , false, false, false, false, false, false, false, false, true , true , false, true , false, false, false, true , false, false, false, false, false, false, false, false, false, false, false, false, false, false, false, false, false, false, false, false, false, false, false, false, false, false, false, false, false, false, false, false, false, false, false
|false, false, false, false, false, true , true , false, false, false, false, true , false, false, false, false, false, false, false, false, false, false, true , false, false, false, false, true , false, false, false, false, false, false, false, false, false, false, false, false, false, true , true , true , false, false, false, false, false, false, false, false, false, false, true , true , false, false, true , false, false, false, true , true , false, true , false, false, false, false, false, false, false, true , false, false, false, false, false, false, true , true , false, false, false, false, false, false, false, false, false, false, false, false, false, false, false, false, false, false, false, false, false, false, false, false, false, false, false, false, false, true , false, true , false, false, false, false, false, false, false, false, false, false, false, false, false, false, false, false, false, false, false, false, false, false, false, false, false, false, false, false, false, false, false, false, false, false, false, false, false, false, false
|false, false, false, false, false, true , false, true , false, false, false, true , false, false, false, false, false, false, false, false, false, false, true , false, false, false, false, false, false, false, false, false, true , false, false, false, false, false, false, false, false, false, false, false, false, false, false, false, false, false, false, false, false, false, true , false, false, false, false, true , false, false, false, true , false, true , false, true , false, false, false, false, false, true , false, false, false, false, false, false, true , true , false, false, false, false, false, false, false, false, false, true , false, false, false, false, false, false, false, false, false, false, false, false, false, false, false, false, false, false, false, true , false, false, false, false, true , false, false, false, false, false, false, false, false, false, true , true , false, false, false, false, false, false, false, false, true , false, false, false, true , false, false, false, false, false, true , false, false, false, false, false, false
|false, false, false, false, false, true , false, true , false, false, false, true , false, false, false, false, false, false, false, false, false, false, true , false, false, false, false, false, false, false, false, false, true , false, false, false, false, false, false, false, false, false, false, false, false, false, false, false, false, false, false, false, false, false, true , false, false, false, false, true , false, false, false, true , false, true , false, true , false, false, false, false, false, true , false, false, false, false, false, false, true , true , false, false, false, false, false, false, false, false, false, true , false, false, false, false, false, false, false, false, false, false, false, false, false, false, false, false, false, false, false, true , false, false, false, false, true , false, false, false, false, false, false, false, false, false, true , true , false, false, false, false, false, false, false, false, true , false, false, false, true , false, false, false, false, false, true , false, false, false, false, false, false
|false, false, false, false, false, true , false, true , false, false, false, true , false, false, false, false, false, false, false, false, false, false, true , false, false, false, false, false, false, false, false, false, true , false, false, false, false, false, false, false, false, false, false, false, false, false, false, false, false, false, false, false, false, false, true , false, false, false, false, true , false, false, false, true , false, true , false, true , false, false, false, false, false, true , false, false, false, false, false, false, true , true , false, false, false, false, false, false, false, false, false, true , false, false, false, false, false, false, false, false, false, false, false, false, false, false, false, false, false, false, false, true , false, false, false, false, true , false, false, false, false, false, false, false, false, false, true , true , false, false, false, false, false, false, false, false, true , false, false, false, true , false, false, false, false, false, true , false, false, false, false, false, false
|false, false, false, false, false, true , false, true , false, false, false, true , false, false, false, false, false, false, false, false, false, false, true , false, false, false, false, false, false, false, false, false, true , false, false, false, false, false, false, false, false, false, false, false, false, false, false, false, false, false, false, false, false, false, true , false, false, false, false, true , false, false, false, true , false, true , false, true , false, false, false, false, false, true , false, false, false, false, false, false, true , true , false, false, false, false, false, false, false, false, false, true , false, false, false, false, false, false, false, false, false, false, false, false, false, false, false, false, false, false, false, true , false, false, false, false, true , false, false, false, false, false, false, false, false, false, true , true , false, false, false, false, false, false, false, false, true , false, false, false, true , false, false, false, false, false, true , false, false, false, false, false, false
|false, false, false, false, false, false, false, false, false, false, false, false, false, false, false, false, false, false, false, false, false, false, false, false, false, false, false, false, false, false, false, false, false, false, false, false, false, false, false, false, false, false, false, false, false, false, false, false, false, false, false, false, false, false, false, false, false, false, false, false, false, false, false, false, false, false, false, false, false, false, false, false, false, false, false, false, false, false, false, false, true , true , false, false, false, false, false, false, false, false, false, false, false, false, false, false, false, false, false, false, false, false, false, false, false, false, false, false, false, false, false, false, false, false, false, false, false, false, false, false, false, false, false, false, false, false, false, false, false, false, false, false, false, false, false, false, false, false, false, false, false, false, false, false, false, false, false, false, false, false, false, false, false
|true , false, false, false, false, false, false, false, false, false, true , false, false, false, false, false, true , false, false, true , false, false, true , false, false, false, false, false, false, false, false, false, false, false, true , false, false, false, false, true , false, true , false, false, true , false, false, false, false, false, false, false, false, false, false, false, false, false, false, false, false, false, false, false, false, false, false, false, true , false, false, false, false, false, false, false, false, false, false, false, true , true , false, false, false, false, false, false, false, false, false, false, false, false, false, true , false, false, false, false, false, true , false, false, false, false, false, true , true , false, false, false, true , true , false, false, false, false, true , false, false, false, false, false, false, false, false, false, false, false, false, false, false, true , false, false, false, false, false, false, false, false, false, false, false, false, false, false, false, false, false, false, false
|true , false, false, false, false, false, false, false, false, false, true , false, false, false, false, false, true , false, false, true , false, false, true , false, false, false, false, false, false, false, false, false, false, false, true , false, false, false, false, true , false, true , false, false, true , false, false, false, false, false, false, false, false, false, false, false, false, false, false, false, false, false, false, false, false, false, false, false, true , false, false, false, false, false, false, false, false, false, false, false, true , true , false, false, false, false, false, false, false, false, false, false, false, false, false, true , false, false, false, false, false, true , false, false, false, false, false, true , true , false, false, false, true , true , false, false, false, false, true , false, false, false, false, false, false, false, false, false, false, false, false, false, false, true , false, false, false, false, false, false, false, false, false, false, false, false, false, false, false, false, false, false, false
|true , false, false, false, false, false, false, false, false, false, true , false, false, false, false, false, true , false, false, true , false, false, true , false, false, false, false, false, false, false, false, false, false, false, true , false, false, false, false, true , false, true , false, false, true , false, false, false, false, false, false, false, false, false, false, false, false, false, false, false, false, false, false, false, false, false, false, false, true , false, false, false, false, false, false, false, false, false, false, false, true , true , false, false, false, false, false, false, false, false, false, false, false, false, false, true , false, false, false, false, false, true , false, false, false, false, false, true , true , false, false, false, true , true , false, false, false, false, true , false, false, false, false, false, false, false, false, false, false, false, false, false, false, true , false, false, false, false, false, true , false, false, false, false, false, false, false, false, false, false, false, false, false
|false, true , false, false, false, false, false, true , false, false, true , false, false, false, true , false, true , false, false, true , false, false, false, false, false, false, false, false, false, false, false, false, false, false, false, false, false, false, false, false, false, false, false, false, true , false, false, false, false, false, false, false, false, false, false, false, false, false, false, false, false, false, false, false, false, false, false, false, false, false, true , false, false, false, false, false, false, false, false, true , true , true , false, false, false, false, false, false, false, false, true , false, false, false, false, false, false, false, false, false, false, true , true , true , false, false, false, true , true , false, false, false, true , false, false, false, false, true , true , false, false, false, false, false, false, true , false, false, false, false, false, false, false, true , false, false, false, true , false, true , false, false, false, false, false, false, false, false, false, false, false, false, false
|false, true , false, false, false, false, false, true , false, false, true , false, false, false, true , false, true , false, false, true , false, false, false, false, false, false, false, false, false, false, false, false, false, false, false, false, false, false, false, false, false, false, false, false, true , false, false, false, false, false, false, false, false, false, false, false, false, false, false, false, false, false, false, false, false, false, false, false, false, false, true , false, false, false, false, false, false, false, false, true , true , true , false, false, false, false, false, false, false, false, true , false, false, false, false, false, false, false, false, false, false, true , true , true , false, false, false, true , true , false, false, false, true , false, false, false, false, true , true , false, false, false, false, false, false, true , false, false, false, false, false, false, false, true , false, false, false, true , false, true , false, false, false, false, false, false, false, false, false, false, false, false, false
|false, true , false, false, false, false, false, true , false, false, true , false, false, false, true , false, true , false, false, true , false, false, false, false, false, false, false, false, false, false, false, false, false, false, false, false, false, false, false, false, false, false, false, false, false, false, false, false, false, false, false, false, false, false, false, false, false, false, false, false, false, false, false, false, false, false, false, false, false, false, true , false, false, false, false, false, false, false, false, true , true , true , false, false, false, false, false, false, false, false, true , false, false, false, false, false, false, false, false, false, false, true , true , true , false, false, false, true , true , false, false, false, false, false, false, false, false, true , true , false, false, false, false, false, false, true , false, false, false, false, false, false, false, false, false, false, false, true , false, false, false, false, false, false, false, false, false, false, false, false, false, false, false
|false, false, false, false, false, false, false, false, false, false, false, false, false, false, false, false, false, false, false, false, false, false, false, false, false, false, false, false, false, false, false, false, false, false, false, false, false, false, false, false, false, false, false, false, true , false, false, false, false, false, false, false, false, false, false, false, false, false, false, false, false, false, false, false, false, false, false, false, false, false, false, false, false, false, false, false, false, false, false, false, true , true , false, false, false, false, false, false, false, false, false, false, false, false, false, false, false, false, false, false, false, false, false, false, false, false, false, false, false, false, false, false, false, false, false, false, false, false, false, false, false, false, false, false, false, false, false, false, false, false, false, false, false, false, false, false, false, false, false, false, false, false, false, false, false, false, false, false, false, false, false, false, false
|false, false, false, false, false, false, false, false, false, false, true , false, false, false, false, false, true , false, true , false, false, false, true , false, false, false, true , false, false, false, false, false, false, false, false, false, false, false, false, false, false, false, false, false, true , false, false, false, false, false, false, true , false, false, false, false, true , false, false, false, false, false, false, false, false, false, false, false, false, false, false, false, false, false, false, false, true , false, false, false, true , true , false, false, false, false, false, false, false, false, false, false, false, false, false, false, false, false, false, false, false, true , true , false, false, false, true , false, false, false, false, false, false, false, false, false, false, true , false, false, false, false, false, false, false, false, false, false, false, false, false, false, false, true , false, false, false, false, false, false, false, false, false, false, false, false, false, false, false, false, false, false, false
|false, true , false, false, false, false, false, false, true , false, true , true , false, false, false, false, true , false, true , false, false, false, true , false, false, false, true , true , true , false, false, false, false, true , false, false, false, false, false, true , false, false, false, false, true , false, false, false, false, false, false, true , false, false, false, false, true , true , false, false, true , true , false, false, true , false, false, false, false, false, false, true , false, false, false, true , true , false, false, false, true , true , false, false, false, false, false, false, false, false, false, false, false, false, false, true , false, false, false, false, false, true , true , false, false, false, true , false, false, false, false, false, false, false, false, false, false, true , false, false, false, false, false, false, false, false, false, false, false, false, false, false, true , true , false, false, false, false, false, false, false, false, false, false, false, false, false, false, false, false, false, false, false
|false, true , false, false, false, false, false, false, true , false, true , true , false, false, false, false, true , false, true , false, false, false, true , false, false, false, true , true , true , false, false, false, false, true , false, false, false, false, false, true , false, false, false, false, true , false, false, false, false, false, false, true , false, false, false, false, true , true , false, false, true , true , false, false, true , false, false, false, false, false, false, true , false, false, false, true , true , false, false, false, true , true , false, false, false, false, false, false, false, false, false, false, false, false, false, true , false, false, false, false, false, true , true , false, false, false, true , false, false, false, false, false, false, false, false, false, false, true , false, false, false, false, false, false, false, false, false, false, false, false, false, false, true , true , false, false, false, false, false, false, false, false, false, false, false, false, false, false, false, false, false, false, false
|false, true , false, false, false, false, false, false, true , false, false, true , false, false, false, false, true , false, false, false, false, false, false, false, false, false, false, true , true , false, false, false, false, true , false, false, false, false, false, true , false, false, false, false, false, false, false, false, false, false, false, true , false, false, false, false, false, true , false, false, true , true , false, false, true , false, false, false, false, false, false, true , false, false, false, true , false, false, false, false, true , true , false, false, false, false, false, false, false, false, false, false, false, false, false, true , false, false, false, false, false, true , true , false, false, false, true , false, false, false, false, false, false, false, false, false, false, true , false, false, false, false, false, false, false, false, false, false, false, false, false, false, true , false, false, false, false, false, false, false, false, false, false, false, false, false, false, false, false, false, false, false, false
|false, false, false, true , false, true , true , true , true , false, false, true , false, true , false, false, false, false, false, false, false, false, false, false, true , false, false, false, false, false, false, false, true , true , false, false, false, false, false, false, false, false, false, false, false, false, false, false, false, false, false, false, false, false, true , false, false, true , false, false, false, false, false, false, false, false, false, false, false, false, false, false, false, false, true , false, false, true , false, false, true , true , false, false, false, false, true , false, false, false, true , false, false, false, false, false, false, false, false, false, false, false, false, false, true , false, false, false, false, false, false, true , false, false, false, false, false, true , false, false, false, false, false, false, false, false, false, false, false, false, false, false, false, false, false, false, false, false, false, false, false, false, false, false, false, false, false, false, false, true , false, false, false
|false, false, false, true , false, true , true , true , true , false, false, true , false, true , false, false, false, false, false, false, false, false, false, false, true , false, false, false, false, false, false, false, true , true , false, false, false, false, false, false, false, false, false, false, false, false, false, false, false, false, false, false, false, false, true , false, false, true , false, false, false, false, false, false, false, false, false, false, false, false, false, false, false, false, true , false, false, true , false, false, true , true , false, false, false, false, true , false, false, false, true , false, false, false, false, false, false, false, false, false, false, false, false, false, true , false, false, false, false, false, false, true , false, false, false, false, false, true , false, false, false, false, false, false, false, false, false, false, false, false, false, false, false, false, false, false, false, false, false, false, false, false, false, false, false, false, false, false, false, true , false, false, false
|false, false, false, true , false, true , true , true , true , false, false, true , false, true , false, false, false, false, false, false, false, false, false, false, true , false, false, false, false, false, false, false, true , true , false, false, false, false, false, false, false, false, false, false, false, false, false, false, false, false, false, false, false, false, true , false, false, true , false, false, false, false, false, false, false, false, false, false, false, false, false, false, false, false, true , false, false, true , false, false, true , true , false, false, false, false, true , false, false, false, true , false, false, false, false, false, false, false, false, false, false, false, false, false, true , false, false, false, false, false, false, true , false, false, false, false, false, true , false, false, false, false, false, false, false, false, false, false, false, false, false, false, false, false, false, false, false, false, false, false, false, false, false, false, false, false, false, false, false, true , false, false, false
|false, false, false, true , false, true , true , true , true , false, false, true , false, true , false, false, false, false, false, false, false, false, false, false, true , false, false, false, false, false, false, false, true , true , false, false, false, false, false, false, false, false, false, false, false, false, false, false, false, false, false, false, false, false, true , false, false, true , false, false, false, false, false, false, false, false, false, false, false, false, false, false, false, false, true , false, false, true , false, false, true , true , false, false, false, false, true , false, false, false, true , false, false, false, false, false, false, false, false, false, false, false, false, false, true , false, false, false, false, false, false, true , false, false, false, false, false, true , false, false, false, false, false, false, false, false, false, false, false, false, false, false, false, false, false, false, false, false, false, false, false, false, false, false, false, false, false, false, false, true , false, false, false
|false, false, false, false, false, false, false, false, false, false, false, false, false, false, false, false, false, false, false, false, false, false, false, false, false, false, false, false, false, false, false, false, false, false, false, false, false, false, false, false, false, false, false, false, false, false, false, false, false, false, false, false, false, false, false, false, false, false, false, false, false, false, false, false, false, false, false, false, false, false, false, false, false, false, false, false, false, false, false, false, true , true , false, false, false, false, false, false, false, false, false, false, false, false, false, false, false, false, false, false, false, false, false, false, false, false, false, false, false, false, false, false, false, false, false, false, false, false, false, false, false, false, false, false, false, false, false, false, false, false, false, false, false, false, false, false, false, false, false, false, false, false, false, false, false, false, false, false, false, false, false, false, false
|true , false, false, false, false, false, false, false, false, false, false, false, false, false, false, true , false, true , false, false, true , false, false, false, false, false, false, false, false, false, false, false, false, false, false, false, true , true , true , false, true , false, false, false, false, false, false, false, false, false, false, false, false, false, false, false, false, false, false, false, false, false, false, false, false, false, true , false, false, false, false, false, false, false, false, false, false, false, false, false, true , true , true , false, false, false, false, false, false, false, false, false, false, false, false, true , false, false, false, false, true , false, false, true , false, false, true , false, false, false, false, false, false, false, false, true , false, false, false, true , false, false, true , false, false, false, false, false, false, false, false, false, false, true , false, true , false, false, false, false, false, false, true , true , false, false, false, false, false, false, false, false, false
|true , false, false, false, false, false, false, false, false, false, false, false, false, false, false, true , false, true , false, false, true , false, false, false, false, false, false, false, false, false, false, false, false, false, false, false, true , true , true , false, true , false, false, false, false, false, false, false, false, false, false, false, false, false, false, false, false, false, false, false, false, false, false, false, false, false, true , false, false, false, false, false, false, false, false, false, false, false, false, false, true , true , true , false, false, false, false, false, false, false, false, false, false, false, false, true , false, false, false, false, true , false, false, true , false, false, true , false, false, false, false, false, false, false, false, true , false, false, false, true , false, false, true , false, false, false, false, false, false, false, false, false, false, true , false, true , false, false, false, false, false, false, true , true , false, false, false, false, false, false, false, false, false
|true , false, false, false, false, false, false, false, false, false, false, false, false, false, false, true , false, true , false, false, true , false, false, false, false, false, false, false, false, false, false, false, false, false, false, false, true , true , true , false, true , false, false, false, false, false, false, false, false, false, false, false, false, false, false, false, false, false, false, false, false, false, false, false, false, false, true , false, false, false, false, false, false, false, false, false, false, false, false, false, true , true , true , false, false, false, false, false, false, false, false, false, false, false, false, true , false, false, false, false, true , false, false, true , false, false, true , false, false, false, false, false, false, false, false, true , false, false, false, true , false, false, true , false, false, false, false, false, false, false, false, false, false, true , false, true , false, false, false, false, false, false, true , true , false, false, false, false, false, false, false, false, false
|false, true , false, false, false, false, false, false, true , false, false, false, false, false, false, true , false, true , false, false, false, false, false, false, false, false, false, false, false, true , false, false, false, false, false, false, false, false, false, false, true , false, false, true , false, true , false, false, false, false, false, false, false, true , false, false, false, false, false, true , false, false, false, false, false, false, false, false, false, false, false, false, false, false, false, false, false, false, false, false, true , true , false, false, false, false, false, false, false, false, false, false, false, false, false, false, false, false, false, false, true , false, false, true , false, false, true , false, false, false, false, true , false, true , false, true , false, false, false, false, false, false, false, false, false, false, false, false, false, false, false, false, false, true , false, false, false, false, false, false, false, false, false, false, false, false, false, false, false, false, false, false, false
|false, true , false, false, false, false, false, false, true , false, false, false, false, false, false, true , false, true , false, false, false, false, false, false, false, false, false, false, false, true , false, false, false, false, false, false, false, false, false, false, true , false, false, true , false, true , false, false, false, false, false, false, false, true , false, false, false, false, false, true , false, false, false, false, false, false, false, false, false, false, false, false, false, false, false, false, false, false, false, false, true , true , false, false, false, false, false, false, false, false, false, false, false, false, false, false, false, false, false, false, true , false, false, true , false, false, true , false, false, false, false, true , false, true , false, true , false, false, false, false, false, false, false, false, false, false, false, false, false, false, false, false, false, true , false, false, false, false, false, false, false, false, false, false, false, false, false, false, false, false, false, false, false
|false, true , false, false, false, false, false, false, true , false, false, false, false, false, false, false, false, true , false, false, false, false, false, false, false, false, false, false, false, true , false, false, false, false, false, false, false, false, false, false, true , false, false, true , false, true , false, false, false, false, false, false, false, true , false, false, false, false, false, true , false, false, false, false, false, false, false, false, false, false, false, false, false, false, false, false, false, false, false, false, true , true , false, false, false, false, false, false, false, false, false, false, false, false, false, false, false, false, false, false, false, false, false, true , false, false, false, false, false, false, false, true , false, true , false, true , false, false, false, false, false, false, false, false, false, false, false, false, false, false, false, false, false, false, false, false, false, false, false, false, false, false, false, false, false, false, false, false, false, false, false, false, false
|false, false, false, false, false, false, false, false, false, false, false, false, false, true , false, false, false, false, false, false, false, false, false, false, false, false, false, false, false, false, false, false, false, false, false, false, false, false, false, false, false, false, false, false, false, false, false, false, false, false, false, false, false, false, false, false, false, false, false, false, false, false, false, false, false, false, false, false, false, false, false, false, false, false, false, false, false, false, false, false, true , true , false, false, false, false, false, false, false, false, false, false, false, false, false, false, false, false, false, false, false, false, false, false, false, false, false, false, false, false, false, false, false, false, false, false, false, false, false, false, false, false, false, false, false, false, false, false, false, false, false, false, false, false, false, false, false, false, false, false, false, false, false, false, false, false, false, false, false, false, false, false, false
|false, false, false, false, false, false, false, false, false, false, false, false, false, true , false, true , false, false, false, false, false, true , false, false, false, false, false, false, false, true , false, false, false, false, false, false, true , false, false, false, true , false, false, false, false, true , false, false, false, false, false, false, false, false, false, false, false, false, false, false, false, false, false, false, false, false, false, false, false, true , false, false, false, false, false, false, false, false, false, false, true , true , false, false, false, false, false, false, false, false, false, false, false, true , false, false, false, false, false, false, true , false, false, false, false, false, true , false, false, true , true , false, false, false, true , false, false, false, false, false, false, false, false, false, false, false, false, false, false, false, false, false, false, true , false, false, false, false, false, false, false, false, true , true , false, false, false, false, false, false, false, false, false
|false, false, false, false, true , false, false, false, false, false, false, true , false, true , false, true , false, false, false, false, false, true , false, false, false, false, false, false, false, true , false, false, false, true , false, false, true , false, false, false, true , false, false, false, false, true , false, false, false, false, false, false, true , false, false, false, false, false, false, false, false, false, false, true , false, false, false, false, false, true , false, true , false, false, false, true , false, false, false, false, true , true , false, false, true , false, false, false, false, false, false, false, false, true , false, false, false, false, false, false, true , false, false, false, false, false, true , false, false, true , true , false, false, false, true , false, false, false, false, false, false, true , false, false, false, false, false, false, false, false, false, true , false, true , true , false, false, false, false, false, false, false, true , true , false, false, false, false, true , false, false, false, false
|false, false, false, false, true , false, false, false, false, false, false, true , false, false, false, true , false, false, false, false, false, true , false, false, false, false, false, false, false, true , false, false, false, true , false, false, true , false, false, false, true , false, false, false, false, true , false, false, false, false, false, false, true , false, false, false, false, false, false, false, false, false, false, true , false, false, false, false, false, true , false, true , false, false, false, true , false, false, false, false, true , true , false, false, true , false, false, false, false, false, false, false, false, true , false, false, false, false, false, false, true , false, false, false, false, false, true , false, false, true , true , false, false, false, true , false, false, false, false, false, false, true , false, false, false, false, false, false, false, false, false, true , false, true , true , false, false, false, false, false, false, false, true , true , false, false, false, false, true , false, false, false, false
|false, false, false, false, true , false, false, false, false, false, false, true , false, false, false, false, false, false, false, false, false, false, false, false, false, false, false, false, false, false, false, false, false, true , false, false, false, false, false, false, false, false, false, false, false, false, false, false, false, false, false, false, true , false, false, false, false, false, false, false, false, false, false, true , false, false, false, false, false, false, false, true , false, false, false, true , false, false, false, false, true , true , false, false, true , false, false, false, false, false, false, false, false, false, false, false, false, false, false, false, true , false, false, false, false, false, false, false, false, true , false, false, false, false, false, false, false, false, false, false, false, true , false, false, false, false, false, false, false, false, false, true , false, false, true , false, false, false, false, false, false, false, true , false, false, false, false, false, true , false, false, false, false
|false, false, false, false, false, false, true , false, false, false, false, false, false, true , false, false, false, false, false, false, false, false, false, false, false, false, false, false, false, false, false, false, true , false, false, false, false, false, false, false, false, false, false, true , false, false, false, false, false, false, false, false, false, true , false, false, false, false, false, true , false, false, false, false, false, true , false, false, true , false, true , false, true , true , false, false, false, false, true , false, true , true , false, false, true , false, false, false, false, false, false, false, false, false, false, false, false, false, false, false, false, false, false, false, false, false, false, false, false, false, true , false, false, false, false, false, false, true , false, false, false, false, false, false, false, false, true , false, true , false, false, true , false, false, false, false, false, false, false, false, false, false, false, false, false, false, false, false, true , false, false, false, false
|false, false, false, false, false, false, true , false, false, false, false, false, false, true , false, false, false, false, false, false, false, false, false, false, false, false, false, false, false, false, false, false, true , false, false, false, false, false, false, false, false, false, false, true , false, false, false, false, false, false, false, false, false, true , false, false, false, false, false, true , false, false, false, false, false, true , false, false, true , false, true , false, true , true , false, false, false, false, true , false, true , true , false, false, true , false, false, false, false, false, false, false, false, false, false, false, false, false, false, false, false, false, false, false, false, false, false, false, false, false, true , false, false, false, false, false, false, true , false, false, false, false, false, false, false, false, true , false, true , false, false, true , false, false, false, false, false, false, false, false, false, false, false, false, false, false, false, false, true , false, false, false, false
|false, false, false, false, false, false, true , false, false, false, false, false, false, true , false, false, false, false, false, false, false, false, false, false, false, false, false, false, false, false, false, false, true , false, false, false, false, false, false, false, false, false, false, true , false, false, false, false, false, false, false, false, false, true , false, false, false, false, false, true , false, false, false, false, false, true , false, false, true , false, true , false, true , true , false, false, false, false, true , false, true , true , false, false, true , false, false, false, false, false, false, false, false, false, false, false, false, false, false, false, false, false, false, false, false, false, false, false, false, false, true , false, false, false, false, false, false, true , false, false, false, false, false, false, false, false, true , false, true , false, false, true , false, false, false, false, false, false, false, false, false, false, false, false, false, false, false, false, true , false, false, false, false
|false, false, false, false, false, false, true , false, false, false, false, false, false, true , false, false, false, false, false, false, false, false, false, false, false, false, false, false, false, false, false, false, true , false, false, false, false, false, false, false, false, false, false, true , false, false, false, false, false, false, false, false, false, true , false, false, false, false, false, true , false, false, false, false, false, true , false, false, true , false, true , false, true , true , false, false, false, false, true , false, true , true , false, false, true , false, false, false, false, false, false, false, false, false, false, false, false, false, false, false, false, false, false, false, false, false, false, false, false, false, true , false, false, false, false, false, false, true , false, false, false, false, false, false, false, false, true , false, true , false, false, true , false, false, false, false, false, false, false, false, false, false, false, false, false, false, false, false, true , false, false, false, false
|false, false, false, false, false, false, false, false, false, false, false, false, false, false, false, false, false, false, false, false, false, false, false, false, false, false, false, false, false, false, false, false, false, false, false, false, false, false, false, false, false, false, false, false, false, false, false, false, false, false, false, false, false, false, false, false, false, false, false, false, false, false, false, false, false, false, false, false, false, false, false, false, false, false, false, false, false, false, false, false, true , true , false, true , false, false, false, false, false, false, false, false, false, false, false, false, false, false, false, false, false, false, false, false, false, false, false, false, false, false, false, false, false, false, false, false, false, false, false, false, false, false, false, false, false, false, false, false, false, false, false, false, false, false, false, false, false, false, false, false, false, false, false, false, false, false, false, false, false, false, false, false, false
|false, false, false, true , false, false, false, false, false, true , false, false, false, false, false, false, false, false, false, false, true , true , false, false, false, false, false, false, false, false, false, false, false, true , false, false, false, false, false, false, false, false, false, false, false, false, false, false, false, false, true , false, false, false, false, false, true , false, true , false, false, false, false, true , false, false, false, false, false, false, false, true , false, false, false, false, false, false, false, false, true , true , true , true , false, false, false, false, false, false, false, false, false, false, false, false, false, false, false, false, false, false, false, false, false, false, false, false, false, false, false, false, false, false, true , false, false, false, false, false, false, false, false, false, false, false, false, false, true , false, false, false, false, true , false, false, false, false, false, false, false, false, false, false, false, false, false, false, false, false, false, false, false
|false, false, false, true , false, false, false, false, false, true , false, false, false, false, false, false, false, false, false, false, true , true , false, false, false, false, false, false, false, false, false, false, false, true , false, false, false, false, false, false, false, false, false, false, false, false, false, false, false, false, true , false, false, false, false, false, true , false, true , false, false, false, false, true , false, false, false, false, false, false, false, true , false, false, false, false, false, false, false, false, true , true , true , true , false, false, false, false, false, false, false, false, false, false, false, false, false, false, false, false, false, false, false, false, false, false, false, false, false, false, false, false, false, false, true , false, false, false, false, false, false, false, false, false, false, false, false, false, true , false, false, false, false, true , false, false, false, false, false, false, false, false, false, false, false, false, false, false, false, false, false, false, false
|false, false, false, true , false, false, false, false, false, true , false, false, false, false, false, true , false, false, false, false, true , true , false, false, false, false, false, false, false, false, false, false, false, true , false, false, false, false, false, false, false, false, false, false, false, false, false, false, false, false, true , false, false, false, false, false, true , false, true , false, false, false, false, true , false, false, false, false, false, false, false, true , false, false, false, false, false, false, false, false, true , true , true , true , false, false, false, false, false, false, false, false, false, false, false, false, false, false, false, false, false, false, false, false, false, false, false, false, false, false, false, false, false, false, true , false, false, false, false, false, false, false, false, false, false, false, false, false, true , false, false, false, false, true , false, false, false, false, false, false, false, false, false, false, false, false, false, false, false, false, false, false, false
|false, false, false, false, false, false, false, false, false, true , false, false, true , false, false, true , false, false, false, false, false, true , false, false, false, false, false, false, false, false, false, false, false, false, false, false, false, false, false, false, false, false, false, false, false, false, false, false, false, false, true , false, false, false, false, false, false, false, true , false, false, false, false, false, false, false, false, false, false, false, false, false, false, false, false, false, false, false, false, false, true , true , false, true , false, false, false, false, false, false, false, false, false, false, false, false, false, false, false, false, false, false, false, false, false, false, false, false, false, false, false, false, false, false, true , false, false, false, false, false, false, false, false, false, false, false, false, false, false, false, false, false, false, true , false, false, false, false, false, false, false, false, false, false, false, false, false, false, false, false, false, false, false
|false, false, false, false, false, false, false, false, false, true , false, false, true , false, false, true , false, false, false, false, false, true , false, false, false, false, false, false, false, false, false, false, false, false, false, false, false, false, false, false, false, false, false, false, false, false, false, false, false, false, true , false, false, false, false, false, false, false, true , false, false, false, false, false, false, false, false, false, false, false, false, false, false, false, false, false, false, false, false, false, true , true , false, true , false, false, false, false, false, false, false, false, false, false, false, false, false, false, false, false, false, false, false, false, false, false, false, false, false, false, false, false, false, false, true , false, false, false, false, false, false, false, false, false, false, false, false, false, false, false, false, false, false, true , false, false, false, false, false, false, false, false, false, false, false, false, false, false, false, false, false, false, false
|false, false, false, false, false, false, false, false, false, false, false, false, true , false, false, false, false, false, false, false, false, false, false, false, false, false, false, false, false, false, false, false, false, false, false, false, false, false, false, false, false, false, false, false, false, false, false, false, false, false, false, false, false, false, false, false, false, false, true , false, false, false, false, false, false, false, false, false, false, false, false, false, false, false, false, false, false, false, false, false, true , true , false, true , false, false, false, false, false, false, false, false, false, false, false, false, false, false, false, false, false, false, false, false, false, false, false, false, false, false, false, false, false, false, false, false, false, false, false, false, false, false, false, false, false, false, false, false, false, false, false, false, false, false, false, false, false, false, false, false, false, false, false, false, false, false, false, false, false, false, false, false, false
|false, false, false, false, false, false, false, false, false, false, false, false, false, false, false, false, false, false, false, false, false, false, false, false, false, false, false, false, false, false, false, false, false, false, false, false, false, false, false, false, false, false, false, false, false, false, false, false, false, false, false, false, false, false, false, false, false, false, false, false, false, false, false, false, false, false, false, false, false, false, false, false, false, false, false, false, false, false, false, false, true , true , false, false, false, false, false, false, false, false, false, false, false, false, false, false, false, false, false, false, false, false, false, false, false, false, false, false, false, false, false, false, false, false, false, false, false, false, false, false, false, false, false, false, false, false, false, false, false, false, false, false, false, false, false, false, false, false, false, false, false, false, false, false, false, false, false, false, false, false, false, false, false
|false, false, false, false, true , false, false, false, false, false, false, false, true , false, false, false, false, false, false, false, false, true , false, false, false, false, false, false, false, false, false, false, true , false, false, false, false, false, false, false, false, false, false, false, false, false, false, false, false, false, false, false, false, false, false, true , true , false, false, false, false, false, false, false, false, false, false, false, false, false, false, false, false, false, false, false, false, false, false, false, true , true , false, true , false, false, false, true , false, false, false, false, false, false, false, false, false, false, false, false, false, false, false, false, false, false, false, false, false, false, false, false, false, false, false, false, false, false, false, false, false, false, false, false, false, false, false, true , true , true , true , false, false, false, false, false, false, false, false, false, false, false, false, false, true , true , false, false, false, false, false, false, true 
|false, false, false, false, true , false, true , false, false, false, false, false, true , false, false, false, false, false, false, false, false, true , true , false, false, false, false, false, false, false, false, false, true , false, false, false, false, false, false, false, false, false, false, false, false, false, false, false, false, false, false, false, false, false, false, true , true , false, false, false, false, false, false, false, false, false, false, false, false, false, false, false, false, false, false, false, false, false, false, false, true , true , false, true , false, false, false, true , false, false, false, false, false, false, false, false, false, false, false, false, false, false, false, false, false, false, false, false, false, false, false, false, false, false, false, false, false, false, false, false, false, false, false, false, false, false, false, true , true , true , true , false, false, false, false, false, false, false, false, false, false, false, false, false, true , true , false, true , false, false, false, false, true 
|false, false, false, false, true , false, true , false, false, false, false, false, true , false, false, false, false, false, false, false, false, true , true , false, false, false, false, false, false, false, false, false, true , false, false, false, false, false, false, false, false, false, false, false, false, false, false, false, false, false, false, false, false, false, false, true , true , false, false, false, false, false, false, false, false, false, false, false, false, false, false, false, false, false, false, false, false, false, false, false, true , true , false, true , false, false, false, true , false, false, false, false, false, false, false, false, false, false, false, false, false, false, false, false, false, false, false, false, false, false, false, false, false, false, false, false, false, false, false, false, false, false, false, false, false, false, false, true , true , true , true , false, false, false, false, false, false, false, false, false, false, false, false, false, true , true , false, true , false, false, false, false, true 
|false, false, false, false, false, false, true , false, false, false, false, false, false, false, false, false, false, false, false, false, false, false, true , false, false, false, false, false, false, false, false, false, false, false, false, false, false, false, false, false, false, false, false, false, false, false, false, false, false, false, false, false, false, false, false, true , true , false, false, false, false, false, false, false, false, false, false, false, false, false, false, false, false, false, false, false, false, false, false, false, true , true , false, true , false, false, false, false, false, false, false, false, false, false, false, false, false, false, false, false, false, false, false, false, false, false, false, false, false, false, false, false, false, false, false, false, false, false, false, false, false, false, false, false, false, false, false, false, false, false, false, false, false, false, false, false, false, false, false, false, false, false, false, false, true , false, false, true , false, false, false, false, false
|false, false, false, false, false, false, false, false, false, false, false, false, false, false, false, false, false, false, false, false, false, false, true , false, false, false, false, false, false, false, false, false, false, false, false, false, false, false, false, false, false, false, false, false, false, false, false, false, false, false, false, false, false, false, false, false, true , false, false, false, false, false, false, false, false, false, false, false, false, false, false, false, false, false, false, false, false, false, false, false, true , true , false, true , false, false, false, false, false, false, false, false, false, false, false, false, false, false, false, false, false, false, false, false, false, false, false, false, false, false, false, false, false, false, false, false, false, false, false, false, false, false, false, false, false, false, false, false, false, false, false, false, false, false, false, false, false, false, false, false, false, false, false, false, false, true , false, false, false, false, false, false, false
|false, false, false, false, false, false, false, false, false, false, false, false, false, false, false, false, false, false, false, false, false, false, true , false, false, false, false, false, false, false, false, false, false, false, false, false, false, false, false, false, false, false, false, false, false, false, false, false, false, false, false, false, false, false, false, false, true , false, false, false, false, false, false, false, false, false, false, false, false, false, false, false, false, false, false, false, false, false, false, false, true , true , false, true , false, false, false, false, false, false, false, false, false, false, false, false, false, false, false, false, false, false, false, false, false, false, false, false, false, false, false, false, false, false, false, false, false, false, false, false, false, false, false, false, false, false, false, false, false, false, false, false, false, false, false, false, false, false, false, false, false, false, false, false, false, true , false, false, false, false, false, false, false
|false, false, false, false, false, false, false, false, false, false, false, false, false, false, false, false, false, false, false, false, false, false, true , false, false, false, false, false, false, false, false, false, false, false, false, false, false, false, false, false, false, false, false, false, false, false, false, false, false, false, false, false, false, false, false, false, true , false, false, false, false, false, false, false, false, false, false, false, false, false, false, false, false, false, false, false, false, false, false, false, true , true , false, false, false, false, false, false, false, false, false, false, false, false, false, false, false, false, false, false, false, false, false, false, false, false, false, false, false, false, false, false, false, false, false, false, false, false, false, false, false, false, false, false, false, false, false, false, false, false, false, false, false, false, false, false, false, false, false, false, false, false, false, false, false, true , false, false, false, false, false, false, false
|false, false, false, false, false, false, false, false, false, false, false, false, false, false, false, false, false, false, false, false, false, false, true , false, false, false, false, false, false, false, false, false, false, false, false, false, false, false, false, false, false, false, false, false, false, false, false, false, false, false, false, false, false, false, false, false, true , false, false, false, false, false, false, false, false, false, false, false, false, false, false, false, false, false, false, false, false, false, false, false, true , true , false, false, false, false, false, false, false, false, false, false, false, false, false, false, false, false, false, false, false, false, false, false, false, false, false, false, false, false, false, false, false, false, false, false, false, false, false, false, false, false, false, false, false, false, false, false, false, false, false, false, false, false, false, false, false, false, false, false, false, false, false, false, false, true , false, false, false, false, false, false, false
|];
