% Synthetic instance, 200 course groups.
% Generated by scripts/academiapp/make_synthetic.py, calibrated on the
% AcademiAPP snapshot: intensity distribution, evening share, groups
% per teacher, availability density, room capacities and resource mix.
% seed=20260807 slack=1.6 availability=1.0

diurno = {1, 2, 3, 4, 5, 6, 7, 8, 9, 10, 11, 12, 17, 18, 19, 20, 21, 22, 23, 24, 25, 26, 27, 28, 33, 34, 35, 36, 37, 38, 39, 40, 41, 42, 43, 44, 49, 50, 51, 52, 53, 54, 55, 56, 57, 58, 59, 60, 65, 66, 67, 68, 69, 70, 71, 72, 73, 74, 75, 76, 81, 82, 83, 84, 85, 86, 87, 88, 89, 90, 91, 92};
nocturno = {13, 14, 15, 16, 29, 30, 31, 32, 45, 46, 47, 48, 61, 62, 63, 64, 77, 78, 79, 80, 93, 94, 95, 96};
H = 96;
asignaturas = 200;
docentes = 79;

A=[|1, 1, 100001, 1, 0, 3
|1, 1, 100002, 1, 0, 7
|1, 1, 100003, 1, 0, 3
|1, 1, 100004, 1, 0, 5
|1, 1, 100005, 1, 0, 3
|2, 1, 100006, 2, 0, 3
|2, 1, 100007, 2, 0, 3
|2, 1, 100008, 2, 0, 3
|2, 1, 100009, 2, 0, 3
|2, 1, 100010, 2, 0, 4
|2, 1, 100011, 2, 0, 3
|2, 1, 100012, 2, 0, 4
|3, 1, 100013, 3, 0, 3
|3, 1, 100014, 3, 0, 4
|3, 1, 100015, 3, 0, 3
|3, 1, 100016, 3, 0, 3
|3, 1, 100017, 3, 0, 3
|3, 1, 100018, 3, 0, 6
|3, 1, 100019, 3, 0, 3
|3, 1, 100020, 3, 0, 4
|4, 1, 100021, 4, 0, 3
|4, 1, 100022, 4, 0, 4
|4, 1, 100023, 4, 0, 3
|4, 1, 100024, 4, 0, 3
|4, 1, 100025, 4, 0, 3
|4, 1, 100026, 4, 0, 2
|4, 1, 100027, 4, 0, 3
|5, 1, 100028, 5, 0, 3
|5, 1, 100029, 5, 0, 3
|5, 1, 100030, 5, 0, 3
|5, 1, 100031, 5, 0, 3
|5, 1, 100032, 5, 0, 3
|5, 1, 100033, 5, 0, 3
|5, 1, 100034, 5, 0, 4
|5, 1, 100035, 5, 0, 3
|5, 1, 100036, 5, 0, 3
|5, 1, 100037, 5, 0, 4
|5, 1, 100038, 5, 0, 4
|5, 1, 100039, 5, 0, 2
|6, 1, 100040, 6, 0, 3
|6, 1, 100041, 6, 0, 3
|6, 1, 100042, 6, 0, 4
|6, 1, 100043, 6, 0, 5
|6, 1, 100044, 6, 0, 4
|6, 1, 100045, 6, 0, 4
|8, 1, 100046, 7, 0, 4
|8, 1, 100047, 7, 0, 3
|8, 1, 100048, 7, 0, 3
|8, 1, 100049, 7, 0, 3
|8, 1, 100050, 7, 0, 3
|8, 1, 100051, 7, 0, 3
|9, 1, 100052, 8, 0, 5
|9, 1, 100053, 8, 0, 3
|9, 1, 100054, 8, 0, 3
|9, 1, 100055, 8, 0, 4
|9, 1, 100056, 8, 0, 3
|9, 1, 100057, 8, 0, 3
|9, 1, 100058, 8, 0, 5
|10, 1, 100059, 9, 0, 3
|10, 1, 100060, 9, 0, 4
|10, 1, 100061, 9, 0, 3
|10, 1, 100062, 9, 0, 5
|11, 1, 100063, 10, 0, 4
|11, 1, 100064, 10, 0, 2
|11, 1, 100065, 10, 0, 4
|11, 1, 100066, 10, 0, 4
|11, 1, 100067, 10, 0, 5
|11, 1, 100068, 10, 0, 4
|12, 1, 100069, 11, 0, 4
|12, 1, 100070, 11, 0, 3
|12, 1, 100071, 11, 0, 4
|12, 1, 100072, 11, 0, 3
|12, 1, 100073, 11, 0, 6
|12, 1, 100074, 11, 0, 3
|13, 1, 100075, 12, 1, 4
|13, 1, 100076, 12, 1, 4
|13, 1, 100077, 12, 1, 3
|13, 1, 100078, 12, 1, 3
|1, 2, 100079, 13, 0, 4
|1, 2, 100080, 13, 0, 4
|1, 2, 100081, 13, 0, 4
|1, 2, 100082, 13, 0, 4
|1, 2, 100083, 13, 0, 4
|1, 2, 100084, 13, 0, 3
|1, 2, 100085, 13, 0, 4
|1, 2, 100086, 13, 0, 3
|2, 2, 100087, 14, 0, 3
|2, 2, 100088, 14, 0, 4
|2, 2, 100089, 14, 0, 4
|2, 2, 100090, 14, 0, 4
|2, 2, 100091, 14, 0, 4
|2, 2, 100092, 14, 0, 4
|2, 2, 100093, 14, 0, 4
|3, 2, 100094, 15, 0, 4
|3, 2, 100095, 15, 0, 3
|3, 2, 100096, 15, 0, 3
|3, 2, 100097, 15, 0, 3
|3, 2, 100098, 15, 0, 4
|3, 2, 100099, 15, 0, 3
|3, 2, 100100, 15, 0, 3
|4, 2, 100101, 16, 0, 3
|4, 2, 100102, 16, 0, 3
|4, 2, 100103, 16, 0, 3
|4, 2, 100104, 16, 0, 3
|4, 2, 100105, 16, 0, 3
|4, 2, 100106, 16, 0, 4
|4, 2, 100107, 16, 0, 3
|5, 2, 100108, 17, 0, 4
|5, 2, 100109, 17, 0, 3
|5, 2, 100110, 17, 0, 3
|5, 2, 100111, 17, 0, 5
|5, 2, 100112, 17, 0, 4
|5, 2, 100113, 17, 0, 5
|6, 2, 100114, 18, 0, 4
|6, 2, 100115, 18, 0, 4
|6, 2, 100116, 18, 0, 4
|6, 2, 100117, 18, 0, 3
|6, 2, 100118, 18, 0, 3
|6, 2, 100119, 18, 0, 3
|6, 2, 100120, 18, 0, 3
|6, 2, 100121, 18, 0, 6
|6, 2, 100122, 18, 0, 3
|6, 2, 100123, 18, 0, 4
|6, 2, 100124, 18, 0, 3
|6, 2, 100125, 18, 0, 5
|8, 2, 100126, 19, 1, 4
|8, 2, 100127, 19, 1, 4
|8, 2, 100128, 19, 1, 4
|8, 2, 100129, 19, 1, 3
|9, 2, 100130, 20, 0, 3
|9, 2, 100131, 20, 0, 3
|9, 2, 100132, 20, 0, 4
|10, 2, 100133, 21, 0, 4
|10, 2, 100134, 21, 0, 3
|10, 2, 100135, 21, 0, 3
|10, 2, 100136, 21, 0, 3
|10, 2, 100137, 21, 0, 4
|10, 2, 100138, 21, 0, 4
|10, 2, 100139, 21, 0, 4
|11, 2, 100140, 22, 0, 3
|11, 2, 100141, 22, 0, 6
|11, 2, 100142, 22, 0, 3
|11, 2, 100143, 22, 0, 2
|11, 2, 100144, 22, 0, 3
|11, 2, 100145, 22, 0, 4
|12, 2, 100146, 23, 0, 4
|12, 2, 100147, 23, 0, 4
|12, 2, 100148, 23, 0, 2
|12, 2, 100149, 23, 0, 3
|12, 2, 100150, 23, 0, 3
|12, 2, 100151, 23, 0, 3
|12, 2, 100152, 23, 0, 3
|12, 2, 100153, 23, 0, 4
|13, 2, 100154, 24, 0, 3
|13, 2, 100155, 24, 0, 2
|13, 2, 100156, 24, 0, 4
|13, 2, 100157, 24, 0, 4
|13, 2, 100158, 24, 0, 3
|13, 2, 100159, 24, 0, 3
|1, 3, 100160, 25, 1, 3
|1, 3, 100161, 25, 1, 3
|1, 3, 100162, 25, 1, 3
|1, 3, 100163, 25, 1, 4
|2, 3, 100164, 26, 0, 4
|2, 3, 100165, 26, 0, 3
|2, 3, 100166, 26, 0, 4
|2, 3, 100167, 26, 0, 4
|2, 3, 100168, 26, 0, 4
|3, 3, 100169, 27, 0, 3
|3, 3, 100170, 27, 0, 3
|4, 3, 100171, 28, 0, 3
|4, 3, 100172, 28, 0, 3
|4, 3, 100173, 28, 0, 4
|4, 3, 100174, 28, 0, 3
|4, 3, 100175, 28, 0, 6
|4, 3, 100176, 28, 0, 4
|4, 3, 100177, 28, 0, 3
|5, 3, 100178, 29, 0, 4
|6, 3, 100179, 30, 0, 5
|6, 3, 100180, 30, 0, 5
|6, 3, 100181, 30, 0, 4
|6, 3, 100182, 30, 0, 4
|6, 3, 100183, 30, 0, 5
|6, 3, 100184, 30, 0, 3
|6, 3, 100185, 30, 0, 4
|8, 3, 100186, 31, 0, 3
|8, 3, 100187, 31, 0, 3
|8, 3, 100188, 31, 0, 4
|8, 3, 100189, 31, 0, 3
|8, 3, 100190, 31, 0, 3
|8, 3, 100191, 31, 0, 6
|8, 3, 100192, 31, 0, 4
|9, 3, 100193, 32, 0, 3
|9, 3, 100194, 32, 0, 4
|9, 3, 100195, 32, 0, 4
|9, 3, 100196, 32, 0, 4
|9, 3, 100197, 32, 0, 4
|9, 3, 100198, 32, 0, 2
|10, 3, 100199, 33, 1, 3
|10, 3, 100200, 33, 1, 2
|];
Da=[{1, 80, 159},
{2, 81, 160},
{3, 82, 161},
{4, 83, 162},
{5, 84, 163},
{6, 85, 164},
{7, 86, 165},
{8, 87, 166},
{9, 88, 167},
{10, 89, 168},
{11, 90, 169},
{12, 91, 170},
{13, 92, 171},
{14, 93, 172},
{15, 94, 173},
{16, 95, 174},
{17, 96, 175},
{18, 97, 176},
{19, 98, 177},
{20, 99, 178},
{21, 100, 179},
{22, 101, 180},
{23, 102, 181},
{24, 103, 182},
{25, 104, 183},
{26, 105, 184},
{27, 106, 185},
{28, 107, 186},
{29, 108, 187},
{30, 109, 188},
{31, 110, 189},
{32, 111, 190},
{33, 112, 191},
{34, 113, 192},
{35, 114, 193},
{36, 115, 194},
{37, 116, 195},
{38, 117, 196},
{39, 118, 197},
{40, 119, 198},
{41, 120, 199},
{42, 121, 200},
{43, 122},
{44, 123},
{45, 124},
{46, 125},
{47, 126},
{48, 127},
{49, 128},
{50, 129},
{51, 130},
{52, 131},
{53, 132},
{54, 133},
{55, 134},
{56, 135},
{57, 136},
{58, 137},
{59, 138},
{60, 139},
{61, 140},
{62, 141},
{63, 142},
{64, 143},
{65, 144},
{66, 145},
{67, 146},
{68, 147},
{69, 148},
{70, 149},
{71, 150},
{72, 151},
{73, 152},
{74, 153},
{75, 154},
{76, 155},
{77, 156},
{78, 157},
{79, 158}
];
Ad=[1, 2, 3, 4, 5, 6, 7, 8, 9, 10, 11, 12, 13, 14, 15, 16, 17, 18, 19, 20, 21, 22, 23, 24, 25, 26, 27, 28, 29, 30, 31, 32, 33, 34, 35, 36, 37, 38, 39, 40, 41, 42, 43, 44, 45, 46, 47, 48, 49, 50, 51, 52, 53, 54, 55, 56, 57, 58, 59, 60, 61, 62, 63, 64, 65, 66, 67, 68, 69, 70, 71, 72, 73, 74, 75, 76, 77, 78, 79, 1, 2, 3, 4, 5, 6, 7, 8, 9, 10, 11, 12, 13, 14, 15, 16, 17, 18, 19, 20, 21, 22, 23, 24, 25, 26, 27, 28, 29, 30, 31, 32, 33, 34, 35, 36, 37, 38, 39, 40, 41, 42, 43, 44, 45, 46, 47, 48, 49, 50, 51, 52, 53, 54, 55, 56, 57, 58, 59, 60, 61, 62, 63, 64, 65, 66, 67, 68, 69, 70, 71, 72, 73, 74, 75, 76, 77, 78, 79, 1, 2, 3, 4, 5, 6, 7, 8, 9, 10, 11, 12, 13, 14, 15, 16, 17, 18, 19, 20, 21, 22, 23, 24, 25, 26, 27, 28, 29, 30, 31, 32, 33, 34, 35, 36, 37, 38, 39, 40, 41, 42];
D=[|false, false, false, false, false, false, false, false, false, false, false, false, false, false, true , false, false, false, true , false, false, false, false, false, true , true , false, false, false, false, false, false, false, false, false, false, true , true , false, true , false, false, false, false, false, false, true , false, false, false, true , false, true , false, false, false, false, false, false, false, false, false, false, false, false, false, false, true , false, true , false, false, true , false, false, false, false, true , false
|false, true , false, false, false, false, false, false, false, false, true , false, false, false, true , false, false, true , true , false, false, false, false, false, true , true , false, false, true , false, false, false, false, true , false, false, true , true , false, true , false, false, false, false, false, false, true , false, false, false, true , false, true , false, false, false, true , false, false, false, false, false, false, true , false, false, false, true , false, true , false, false, true , false, false, false, true , true , false
|false, true , true , false, false, false, false, false, false, false, true , false, false, false, true , false, false, true , false, false, false, false, false, false, true , true , false, false, true , false, false, false, false, true , false, false, true , false, false, true , false, false, false, false, false, false, true , true , false, false, true , false, true , false, false, false, true , false, false, false, false, false, false, true , false, false, false, true , false, false, false, false, false, false, false, false, true , true , false
|true , false, true , false, false, false, false, false, false, false, false, false, true , true , true , false, false, true , false, false, false, false, false, false, false, false, true , false, false, false, false, false, false, false, false, false, true , false, false, true , false, false, false, false, false, false, false, true , false, false, false, false, true , false, false, false, true , false, false, false, false, false, false, true , false, true , false, false, false, false, false, false, false, false, false, true , true , false, true 
|true , false, false, false, false, false, false, false, false, false, false, true , true , true , false, false, false, false, false, false, false, false, false, false, false, true , true , true , false, false, false, false, false, true , false, false, true , false, false, false, false, false, false, true , false, false, false, true , false, true , false, false, false, false, false, false, true , false, false, false, false, false, true , false, false, true , false, false, false, false, false, true , false, false, false, true , true , false, true 
|true , false, false, false, false, false, false, false, false, false, false, true , false, true , false, false, false, false, false, false, false, false, true , false, false, true , false, true , false, false, false, false, false, true , false, true , true , false, false, false, false, false, false, true , false, false, false, false, false, true , false, false, false, true , false, false, true , false, false, false, false, false, true , false, false, true , false, true , false, false, false, true , false, false, false, true , false, false, true 
|true , false, false, true , false, false, false, false, false, false, false, true , false, false, false, false, false, false, false, false, false, false, true , false, false, false, false, true , false, false, false, false, false, false, false, true , false, false, false, false, false, false, false, true , false, false, false, false, false, true , false, false, false, true , false, false, true , false, false, false, false, false, true , false, false, false, false, true , false, false, false, true , false, false, false, false, false, false, false
|true , false, false, true , false, false, true , true , false, true , false, true , false, true , false, true , false, false, false, false, true , false, false, false, false, true , false, false, false, false, true , false, false, false, false, false, true , false, true , false, false, false, false, false, false, false, false, false, false, false, false, false, false, false, true , false, false, false, false, false, false, false, false, false, false, false, false, false, true , false, false, false, false, true , false, false, false, true , false
|true , false, false, true , false, false, true , true , false, true , false, true , false, true , false, true , false, false, false, false, true , false, false, true , false, true , false, false, false, false, true , false, false, false, false, false, true , false, true , false, false, false, false, false, false, true , false, false, false, false, false, false, false, true , true , false, true , false, false, false, false, false, false, false, false, false, false, false, true , false, true , false, false, true , false, false, false, true , false
|false, false, true , false, false, false, true , true , false, false, true , false, false, false, false, true , false, false, false, false, true , false, false, true , false, true , false, false, false, false, true , false, false, false, false, false, false, false, false, false, false, false, false, false, false, true , false, false, true , false, false, false, false, true , true , false, true , false, false, true , false, false, false, false, true , false, false, false, false, false, true , false, true , true , false, false, false, true , true 
|false, false, true , false, false, false, false, true , false, false, true , false, false, false, false, false, false, false, false, false, false, false, false, true , false, false, false, false, false, false, false, false, true , false, false, false, false, true , false, false, false, false, true , false, false, true , false, false, true , false, false, false, false, true , false, false, true , false, false, true , false, false, false, false, true , false, false, false, false, false, true , false, true , true , false, false, false, false, true 
|false, false, true , false, false, false, false, false, false, false, true , false, true , true , true , false, false, false, false, false, false, false, false, false, false, false, false, false, false, false, false, false, true , true , false, false, false, true , false, false, false, false, true , false, false, false, false, false, true , false, false, false, false, false, false, false, false, true , false, false, true , false, false, false, false, false, false, false, false, false, false, false, true , true , false, false, false, false, true 
|false, false, false, false, false, false, false, false, false, false, true , false, true , true , true , false, false, true , false, false, false, false, false, false, false, false, false, false, false, false, false, false, false, true , false, true , false, false, true , false, false, false, false, true , false, true , true , false, false, false, false, false, false, false, false, true , false, true , false, false, true , false, true , false, false, false, false, false, false, false, false, true , false, true , false, false, true , false, false
|false, false, false, false, false, false, false, false, false, false, false, false, true , true , false, false, false, true , false, false, false, false, false, false, false, false, false, false, false, false, false, false, false, true , false, true , false, false, true , false, false, false, false, true , false, true , true , false, false, false, false, false, false, false, false, true , false, true , false, false, true , false, true , false, false, false, false, false, false, false, false, true , false, true , false, true , true , false, false
|false, false, false, false, false, false, false, false, false, false, false, false, false, false, false, false, false, true , false, false, false, false, false, false, false, false, false, false, false, false, false, false, false, false, false, true , false, false, true , false, false, false, false, true , false, true , false, false, false, false, false, false, false, false, false, true , false, false, false, false, false, false, true , false, false, false, false, false, false, false, false, true , false, true , false, true , true , false, false
|false, false, false, false, false, false, false, false, false, false, false, false, false, false, false, false, false, true , false, false, false, false, false, false, false, false, false, false, false, false, false, false, false, false, false, true , false, false, true , false, false, false, false, true , false, true , false, false, false, false, false, false, false, false, false, true , false, false, false, false, false, false, true , false, false, false, false, false, false, false, false, true , false, true , false, false, true , false, false
|false, false, false, false, false, true , false, false, false, false, true , false, false, false, false, false, false, false, false, false, false, true , false, false, false, false, false, false, false, false, false, false, false, false, false, false, false, false, false, false, false, false, false, false, false, false, false, false, false, true , false, false, true , false, false, false, false, false, false, false, false, false, true , false, false, false, false, false, false, false, false, true , false, false, false, false, false, false, false
|false, false, false, false, false, true , false, false, false, false, true , false, false, false, false, false, false, false, false, false, false, true , false, false, false, false, false, false, false, false, false, false, false, false, false, false, false, false, false, false, false, false, true , false, false, false, false, false, false, true , false, false, true , false, false, false, true , false, false, false, false, false, true , false, false, false, false, true , false, false, false, true , true , false, false, false, false, false, false
|false, false, false, true , false, true , false, false, false, false, true , false, false, false, false, true , false, false, false, false, false, false, false, false, false, false, false, false, true , false, false, false, false, false, false, true , false, false, false, false, false, false, true , false, false, false, false, false, false, true , false, true , true , false, false, true , true , false, false, false, false, false, false, false, false, false, false, true , false, false, false, true , true , false, false, false, false, false, false
|false, false, false, true , false, false, false, false, false, false, false, false, false, false, false, true , false, false, false, true , false, false, false, false, false, false, false, false, true , false, false, false, false, true , false, true , false, false, false, false, false, false, true , false, false, false, false, false, false, false, false, true , false, false, false, true , true , false, true , false, false, false, false, false, false, false, false, false, false, false, false, false, true , true , false, true , false, false, false
|false, false, false, false, false, false, false, false, false, false, false, false, false, false, false, true , false, false, false, true , true , false, true , false, false, false, false, false, true , false, false, false, false, true , false, true , false, false, false, false, false, false, false, true , false, false, false, false, false, false, false, true , false, false, false, true , false, false, true , false, false, false, false, true , false, false, false, false, false, false, false, false, false, true , false, true , false, false, false
|false, true , false, false, false, false, false, false, false, false, false, false, false, false, false, false, false, false, false, true , true , false, true , false, false, false, false, false, false, false, false, false, false, true , false, true , false, false, false, false, false, false, true , true , false, false, false, false, false, false, false, false, false, false, false, true , false, false, false, false, false, false, false, true , false, false, false, false, false, false, false, false, false, true , false, true , false, false, false
|false, true , false, false, false, false, false, false, false, false, false, false, false, false, false, false, false, false, false, false, false, false, true , false, false, false, false, false, false, false, false, false, false, false, false, false, false, false, false, false, false, false, true , false, false, false, false, false, false, false, false, false, false, false, false, false, false, false, false, false, false, false, false, true , false, false, false, false, false, false, false, false, false, false, false, true , false, true , false
|true , false, false, false, false, false, false, false, false, false, false, false, false, true , false, false, true , false, false, false, false, false, false, false, false, false, true , false, false, false, false, false, false, false, false, false, false, false, false, false, false, false, true , false, false, false, false, false, true , false, false, false, true , false, false, false, false, false, false, false, false, false, false, true , false, true , false, false, true , false, false, false, false, false, false, false, false, true , false
|true , false, false, false, true , false, false, false, false, false, false, false, false, true , false, false, true , false, false, false, true , false, false, false, false, false, true , true , false, false, false, false, false, false, false, false, true , false, false, false, false, false, false, false, false, false, false, false, true , false, false, false, true , false, false, false, false, false, false, false, false, false, false, false, false, true , false, false, true , false, false, false, false, false, false, false, false, false, false
|false, false, false, false, true , false, true , false, true , false, false, false, false, false, false, false, true , false, false, false, true , false, false, false, false, false, true , true , false, false, false, false, false, false, false, false, true , false, true , false, false, false, false, false, false, false, false, false, true , false, false, false, false, false, false, false, false, false, false, false, false, true , false, false, false, false, true , false, true , false, false, false, false, false, true , false, false, false, false
|false, false, false, false, true , false, true , false, true , false, false, false, false, false, false, false, false, false, false, false, true , false, false, false, false, false, false, true , false, false, false, false, false, false, false, false, true , false, true , false, false, false, false, false, false, false, false, false, false, false, false, false, false, false, false, false, false, false, false, false, false, true , false, false, false, false, true , false, false, false, false, false, false, false, true , false, false, false, false
|false, false, false, false, false, false, true , false, true , false, false, true , false, true , true , false, false, false, false, false, true , false, false, false, false, false, false, true , false, false, false, false, false, false, true , false, true , false, false, false, false, false, false, true , false, false, false, false, false, false, false, false, false, false, false, false, false, false, false, false, false, false, false, false, false, false, false, false, false, false, false, false, false, false, true , false, false, false, false
|false, true , false, true , false, false, true , false, true , false, false, true , false, true , true , false, false, false, false, false, true , false, false, true , false, true , false, false, true , false, false, false, false, false, true , false, true , false, false, true , false, true , false, true , true , false, false, false, false, true , false, false, true , false, true , false, false, false, false, false, true , false, false, false, false, false, false, false, false, false, false, false, false, false, false, false, false, false, true 
|false, true , false, true , false, false, true , false, true , false, false, false, false, false, true , false, false, false, false, false, true , false, false, true , false, true , false, false, true , false, false, false, false, false, true , false, true , false, false, true , false, true , false, false, true , false, false, false, false, true , false, false, true , false, true , false, false, false, false, false, true , false, false, false, false, false, false, false, false, false, false, false, false, false, false, false, true , false, true 
|false, true , false, true , false, false, true , false, false, false, false, false, false, false, false, false, false, false, false, false, false, false, false, true , false, true , false, false, true , false, false, false, false, false, false, false, true , false, false, true , false, true , false, false, true , false, false, false, false, true , false, false, true , false, true , false, false, false, false, false, true , false, false, false, false, false, false, false, false, false, false, false, false, false, false, false, true , false, true 
|false, false, false, true , false, false, true , false, false, false, false, false, false, false, false, false, false, false, false, false, false, false, false, true , false, true , false, false, true , false, false, false, false, false, false, false, true , false, false, true , false, true , false, false, true , false, false, false, false, false, false, false, true , false, true , false, false, false, false, false, true , false, false, false, false, false, false, false, false, false, false, false, false, false, false, false, true , false, true 
|false, false, false, false, false, false, false, false, false, false, false, false, false, false, false, false, false, false, true , false, false, false, false, false, false, false, false, false, false, false, false, false, false, false, false, true , false, true , false, false, false, false, false, false, false, false, true , false, false, true , false, false, true , false, true , false, false, false, true , false, true , false, false, false, true , false, false, true , true , false, false, false, false, false, false, false, true , false, false
|false, false, false, false, false, true , false, false, false, false, false, false, false, true , false, false, false, false, true , false, false, false, false, false, true , false, false, false, false, false, false, false, false, false, false, true , false, true , false, false, false, false, false, false, false, false, true , false, false, true , false, false, true , true , true , false, false, false, true , false, true , false, false, false, true , false, false, true , true , false, false, false, false, false, false, false, true , false, false
|false, false, false, false, false, true , false, true , false, false, false, false, false, true , false, false, false, false, false, false, false, false, false, false, true , false, false, false, false, false, true , false, true , false, false, true , false, true , false, false, false, false, false, false, false, false, true , false, false, true , false, false, true , true , false, false, false, false, true , false, true , false, false, false, true , false, false, true , false, false, false, false, false, false, false, false, true , false, false
|false, false, false, false, false, false, false, true , false, false, false, false, false, true , true , false, false, false, false, false, false, false, false, false, true , false, false, false, false, false, true , false, true , false, true , false, false, false, false, false, false, false, false, false, false, true , false, false, false, false, false, false, true , true , true , false, false, false, false, false, false, false, false, false, false, false, false, false, false, false, false, false, false, false, true , false, false, false, false
|false, false, false, false, true , false, false, true , false, false, false, false, false, false, true , false, false, false, false, false, false, true , false, false, false, false, false, false, false, false, true , false, true , false, true , false, false, false, false, false, false, false, false, false, false, true , true , false, false, false, false, false, false, false, true , false, false, false, false, false, false, false, false, false, false, true , false, false, false, false, false, false, false, false, true , false, false, false, false
|false, false, false, false, true , false, false, true , false, true , false, false, false, false, false, false, false, false, false, false, false, true , false, false, false, false, false, false, false, false, false, false, false, false, false, false, false, false, false, false, false, true , false, false, true , false, true , false, false, false, false, false, false, false, false, false, false, false, false, false, false, false, false, false, false, true , false, false, false, false, false, false, false, false, true , false, false, false, false
|false, false, false, false, true , false, false, true , false, true , false, false, false, false, false, false, false, false, false, false, false, false, false, false, true , false, false, false, false, false, true , false, false, false, false, false, false, false, false, false, false, true , false, false, true , false, true , false, true , false, false, false, false, false, false, false, false, true , false, false, true , false, false, false, false, false, false, false, false, false, false, false, false, false, false, false, false, false, false
|false, true , false, false, false, false, false, false, true , false, false, true , false, false, false, false, false, false, false, false, false, false, false, false, true , false, false, false, false, false, true , false, false, false, false, false, false, false, false, false, false, true , false, false, false, false, false, false, true , false, false, false, false, false, false, false, false, true , false, false, true , false, false, true , false, false, false, false, false, false, false, false, false, false, false, false, false, true , false
|false, true , false, false, false, false, false, false, true , false, false, true , false, false, false, false, false, true , false, false, true , true , false, false, false, false, false, false, false, false, true , false, false, false, false, true , false, false, false, false, false, true , false, false, false, false, false, true , true , false, false, false, false, false, false, false, false, false, false, true , true , false, false, true , false, false, true , false, false, false, false, false, false, true , false, false, false, true , false
|false, false, false, false, false, false, false, false, false, false, false, false, false, false, true , false, false, true , false, false, true , true , false, false, false, false, true , false, false, true , false, false, false, false, false, true , false, true , true , false, true , true , false, false, false, false, false, true , true , true , false, false, false, false, false, false, false, false, false, true , false, false, false, true , false, false, true , false, false, false, false, false, false, true , false, false, false, true , false
|false, false, false, false, false, false, false, false, false, false, false, false, false, true , true , false, false, true , false, false, true , true , false, false, false, false, true , false, false, true , false, false, false, false, false, true , false, true , true , false, true , false, false, false, false, false, false, true , false, true , false, false, false, false, false, false, false, false, false, false, false, false, false, false, false, false, false, false, false, false, false, false, false, true , false, false, false, false, false
|false, false, false, false, false, false, false, false, true , false, false, false, false, true , false, false, true , true , false, false, false, true , false, false, false, false, true , false, false, true , false, false, false, false, false, false, false, true , true , false, true , false, false, false, false, false, false, false, false, true , false, false, false, true , true , false, false, false, false, false, false, false, false, true , true , false, false, false, false, false, false, false, true , false, false, false, false, true , false
|false, false, false, false, false, true , false, true , true , false, true , true , true , false, false, false, true , true , false, true , true , true , false, false, false, false, false, false, false, false, false, true , false, true , false, false, false, false, false, false, true , false, true , false, false, false, false, false, true , false, false, false, false, true , true , false, false, true , true , false, false, false, false, true , true , false, false, false, false, true , false, false, true , false, false, false, false, true , false
|false, false, false, false, true , true , false, true , true , false, true , true , true , false, false, false, true , false, false, true , true , false, false, false, false, false, false, false, false, false, false, true , false, true , false, false, false, false, false, false, true , true , true , false, false, false, false, false, true , false, false, false, false, true , false, false, false, true , true , false, false, false, false, true , false, false, false, false, false, true , false, false, false, false, false, false, false, false, false
|false, false, false, false, true , true , false, true , false, false, true , true , true , false, false, false, false, false, false, true , true , false, false, false, false, false, false, false, false, false, false, true , false, true , false, false, false, false, false, false, true , true , true , false, false, false, false, true , false, false, false, false, false, true , false, false, false, true , true , false, false, false, false, false, false, false, false, false, false, true , false, false, false, false, true , false, false, false, false
|false, false, false, false, false, true , false, true , false, false, true , true , true , false, false, false, false, false, false, true , true , false, false, false, false, false, false, false, false, false, false, true , false, true , false, false, false, false, false, false, true , false, true , false, false, false, false, true , false, false, false, false, false, true , false, false, false, true , true , false, false, false, false, false, false, false, false, false, false, true , false, false, false, false, true , false, false, false, false
|false, false, true , false, false, true , false, false, false, false, true , true , false, false, false, false, true , false, true , false, false, false, false, false, false, true , false, true , true , true , true , false, true , false, false, false, false, false, false, false, false, false, false, false, false, false, true , false, false, false, true , false, false, false, false, false, false, false, false, false, false, false, false, false, false, false, false, false, false, false, false, false, false, false, false, false, false, false, false
|false, false, true , false, false, true , false, false, false, false, true , true , false, false, false, false, true , false, true , true , false, true , false, true , false, true , false, true , true , true , true , false, true , false, false, false, false, false, false, false, true , false, false, false, false, false, true , true , false, false, true , false, false, false, false, true , false, false, false, false, false, false, false, false, false, true , false, false, true , false, false, false, false, false, false, false, false, false, false
|false, false, false, false, false, true , true , false, true , false, true , false, false, false, false, false, false, false, true , true , false, true , false, true , false, true , false, false, true , false, false, false, true , false, false, false, false, false, false, false, true , false, false, false, true , false, true , true , false, false, true , false, false, false, false, true , false, false, false, false, false, false, false, false, false, true , false, false, true , false, false, false, false, false, false, false, false, false, false
|false, false, false, false, false, false, true , false, true , false, false, true , true , false, false, false, false, false, false, false, false, false, false, true , false, false, true , false, false, false, false, false, false, false, true , false, false, false, true , false, true , false, true , false, true , false, true , true , false, false, true , false, false, false, false, true , true , false, false, false, false, false, true , false, true , false, false, false, false, false, false, false, false, false, false, false, true , false, false
|false, false, true , false, false, false, true , false, false, false, false, true , true , true , false, false, false, false, false, false, false, true , false, false, false, false, true , false, false, false, false, false, false, false, true , false, false, false, true , true , false, false, true , true , false, false, true , false, false, false, false, false, false, false, false, false, true , true , true , false, false, false, true , false, true , false, false, false, false, true , true , false, false, false, false, false, true , false, false
|false, false, true , false, false, false, false, false, false, false, false, true , true , true , false, false, false, false, false, false, false, true , false, false, false, false, false, false, false, false, false, false, true , false, true , false, false, false, true , true , false, false, true , true , false, false, true , false, false, false, false, false, false, false, true , false, true , true , true , false, false, false, true , false, true , false, false, false, false, true , true , false, false, false, false, false, true , false, false
|false, false, true , false, false, true , false, false, false, true , false, false, true , false, false, false, false, true , false, false, false, false, false, false, false, false, false, false, false, false, false, true , true , false, false, false, false, false, false, true , false, false, false, false, false, false, false, false, false, false, false, false, false, false, true , false, false, true , true , false, false, true , false, false, false, false, false, false, false, true , false, false, true , false, false, false, false, false, true 
|false, false, false, false, true , true , false, false, false, true , false, false, true , false, false, false, false, true , false, true , false, false, true , true , false, false, false, false, false, false, false, true , true , true , false, false, false, false, false, false, false, false, false, false, false, false, false, false, false, false, false, false, false, false, true , false, false, false, false, false, false, true , false, false, false, false, false, true , false, true , false, false, true , false, false, false, false, true , true 
|true , false, false, true , true , true , false, false, false, false, false, false, true , false, false, false, false, true , false, true , false, false, true , true , false, false, false, false, false, false, false, true , false, true , false, false, false, false, false, false, false, false, false, false, true , false, false, false, false, false, false, false, false, false, false, false, false, false, false, false, false, true , false, true , false, false, false, true , false, false, false, false, true , false, false, false, false, true , false
|true , false, true , true , true , true , false, false, true , false, false, false, false, false, false, false, true , false, false, true , false, false, true , false, false, false, false, false, false, false, false, true , false, false, false, false, false, false, true , false, true , false, true , false, true , false, false, false, false, false, true , false, false, false, false, false, false, true , false, false, false, false, false, true , true , false, false, false, false, false, true , true , false, false, true , false, false, true , false
|true , false, true , true , true , false, false, false, true , false, false, false, false, false, false, false, true , true , false, true , false, false, false, false, false, false, false, false, false, false, false, true , false, false, false, false, false, false, true , false, true , false, true , false, true , false, false, false, false, false, true , false, false, false, false, false, false, true , false, false, false, false, false, true , true , false, false, false, false, false, true , true , false, false, true , false, true , false, false
|false, false, true , false, false, false, false, false, true , false, false, false, false, false, false, false, true , true , false, true , false, false, false, false, false, false, false, false, true , false, false, true , false, false, false, false, false, false, false, false, true , false, true , false, false, false, false, false, false, false, true , false, false, false, false, false, false, false, false, false, false, false, true , true , false, false, false, false, false, false, true , true , true , false, true , false, true , false, false
|false, false, true , false, false, false, false, false, false, false, false, false, false, false, false, false, true , false, false, false, false, false, true , false, true , false, true , false, true , true , false, true , false, false, false, false, false, true , false, false, false, false, false, false, false, false, false, false, false, false, true , true , false, false, false, false, false, false, false, false, false, false, true , true , true , false, true , false, false, false, true , false, true , false, false, false, false, false, false
|false, false, true , false, false, false, false, false, false, false, false, false, false, false, false, false, true , false, false, false, false, false, true , false, true , false, true , false, true , true , false, false, false, false, false, false, false, true , false, false, true , false, false, false, false, false, true , false, false, false, true , true , false, false, false, false, false, false, false, false, false, false, false, true , true , false, true , false, false, false, true , false, true , false, true , false, false, false, false
|false, false, true , false, false, false, false, false, false, false, false, false, false, false, false, false, false, false, false, false, false, false, true , false, true , false, true , false, false, true , false, false, false, false, false, false, false, true , false, false, true , false, false, false, false, false, true , false, false, false, true , true , false, false, false, false, false, false, false, false, false, false, false, false, true , false, true , false, false, false, true , false, false, false, true , false, false, false, false
|false, false, true , false, false, false, false, false, false, false, false, false, false, false, false, false, false, false, false, false, false, false, true , false, true , false, true , false, false, true , false, false, false, false, false, false, false, true , false, false, true , false, false, false, false, false, false, false, false, false, true , true , false, false, false, false, false, false, false, false, false, false, false, false, true , false, true , false, false, false, true , false, false, false, false, false, false, false, false
|true , false, false, false, true , false, false, false, false, true , false, false, false, false, false, true , false, false, false, false, false, false, false, false, false, true , false, false, false, false, false, false, false, false, false, false, false, false, false, false, false, false, false, true , true , false, false, true , true , false, false, true , false, false, false, false, false, false, false, false, true , false, false, false, false, false, true , false, false, false, false, true , false, false, false, false, false, false, false
|true , false, false, false, true , false, false, false, false, true , false, false, false, false, false, true , false, false, false, false, false, false, true , false, false, true , true , false, false, false, false, false, false, false, true , false, false, true , false, false, false, false, false, true , true , false, false, true , true , false, false, true , false, true , false, true , false, false, false, false, true , true , false, false, false, false, true , false, false, true , false, true , false, false, false, false, false, false, false
|false, false, false, false, true , false, false, false, false, true , false, false, false, false, true , true , false, false, false, false, false, false, true , false, false, true , true , false, true , false, false, false, false, false, true , false, false, true , false, false, false, false, false, true , true , false, false, true , true , false, false, false, false, true , false, true , false, false, false, false, true , true , false, false, false, false, false, false, false, true , false, true , false, false, false, false, false, false, true 
|false, false, false, false, false, false, false, false, false, false, false, false, false, false, true , false, false, false, false, false, false, true , true , false, false, false, true , false, true , false, false, false, false, false, true , false, false, false, false, false, false, false, false, true , false, false, false, false, false, false, false, false, false, false, false, true , false, false, false, true , false, true , false, false, false, false, true , false, false, true , false, false, false, false, true , false, false, false, true 
|false, false, false, true , false, true , false, false, false, false, true , false, false, false, true , false, false, false, false, false, false, true , false, false, false, false, false, false, true , false, false, true , false, false, true , false, true , false, false, false, false, false, false, true , false, true , false, false, false, false, false, false, false, false, false, false, false, true , false, true , false, false, false, false, true , false, true , false, false, true , false, false, false, false, true , false, true , false, false
|false, false, false, true , false, true , true , false, false, false, true , false, false, false, false, false, false, false, false, true , false, true , false, false, false, false, false, false, false, false, false, true , false, false, true , false, true , false, false, false, false, false, false, true , false, true , false, false, false, false, false, false, false, false, false, false, false, true , true , false, false, false, true , false, true , false, true , false, false, true , false, false, false, false, true , false, true , false, false
|false, false, false, true , false, false, true , false, false, false, false, false, false, false, false, false, false, false, false, true , false, false, false, false, true , false, false, true , false, false, false, true , false, false, false, false, false, false, false, false, false, false, false, false, false, true , false, false, false, false, false, false, false, false, false, false, false, true , true , false, false, true , true , false, true , false, true , false, false, true , false, false, false, false, false, false, true , false, false
|false, true , false, false, false, false, true , true , false, true , false, false, false, false, false, false, false, false, false, false, true , false, false, false, true , false, false, true , false, false, false, false, false, false, false, false, false, false, false, true , false, false, false, false, false, false, false, false, false, false, false, false, false, false, false, false, false, false, false, false, true , true , false, false, false, false, false, false, true , false, false, false, false, false, true , true , false, false, false
|false, true , false, false, false, false, false, true , false, true , false, false, false, false, false, false, false, false, false, false, true , false, false, true , true , false, false, true , false, true , false, false, false, false, false, false, false, false, false, true , true , false, false, false, false, false, false, false, false, false, false, true , false, false, false, false, false, false, false, false, true , true , false, false, false, false, true , false, true , false, false, false, false, true , true , true , false, false, false
|false, true , false, true , false, false, false, false, false, false, false, true , false, false, false, false, false, false, false, false, true , false, false, true , false, false, false, false, false, true , false, false, false, true , false, false, false, false, false, true , true , false, false, false, true , false, false, false, false, false, false, true , false, false, false, false, false, true , false, false, true , false, false, false, false, false, true , false, true , false, false, false, false, true , true , true , false, false, false
|false, true , false, true , false, false, false, false, false, false, false, true , false, false, false, false, false, false, false, false, false, false, false, true , false, false, false, false, false, true , false, false, false, true , false, false, false, false, false, false, true , true , false, false, true , true , false, false, false, false, false, true , false, false, false, false, false, true , false, false, false, false, false, false, false, true , true , false, false, false, false, false, false, false, false, false, false, false, false
|false, true , false, false, false, false, false, false, true , false, false, true , true , false, false, false, false, false, false, false, false, false, false, false, false, false, false, false, false, false, false, false, false, false, true , false, true , false, false, false, false, true , false, true , true , true , false, false, false, false, false, false, false, false, false, false, false, true , false, true , false, false, true , false, false, true , false, false, false, false, false, false, false, false, false, false, false, false, false
|false, true , false, false, false, false, false, false, true , true , false, true , true , false, false, true , false, false, false, false, false, false, false, false, false, false, false, false, false, false, false, false, true , false, true , false, true , false, false, false, false, false, false, true , false, false, false, false, true , true , false, false, false, false, false, false, true , false, false, true , false, false, true , false, false, true , false, true , true , false, false, false, true , false, false, false, false, false, false
|false, true , false, true , false, false, false, false, false, true , false, true , false, false, false, true , false, false, false, false, false, false, false, false, false, false, false, false, false, false, false, false, true , false, true , false, true , false, false, false, false, false, false, true , false, false, false, false, true , true , false, false, false, false, false, false, true , false, false, false, false, false, false, false, false, true , false, true , true , false, false, false, true , false, false, false, false, true , false
|false, false, false, true , false, false, false, false, false, true , false, false, false, false, false, true , false, false, false, false, false, false, false, false, false, false, false, false, false, false, false, false, true , false, false, false, false, false, false, false, false, false, false, false, false, false, false, false, false, true , false, false, false, false, false, false, true , false, false, false, false, false, false, false, false, true , false, true , true , false, false, false, true , false, false, false, false, true , false
|false, false, false, true , false, false, false, false, false, true , false, false, false, false, false, true , false, false, false, false, false, false, false, false, false, false, false, false, false, false, false, false, true , false, false, false, false, false, false, false, false, false, false, false, false, false, false, false, false, true , false, false, false, false, false, false, true , false, false, false, false, false, false, false, false, true , false, true , true , false, false, false, true , false, false, false, false, true , false
|false, false, false, false, false, false, true , false, true , false, false, false, false, false, true , true , false, true , true , true , false, false, false, false, false, false, false, false, false, false, false, false, false, false, false, false, false, false, false, false, false, false, false, false, false, false, false, true , false, false, false, false, false, false, false, false, false, true , false, false, true , false, false, false, false, false, false, false, false, false, false, true , false, false, false, true , false, false, false
|false, false, false, false, false, false, true , false, true , false, false, false, true , false, true , true , false, true , true , true , false, false, false, false, false, false, false, false, false, false, true , true , false, false, false, false, false, false, false, false, false, true , false, false, false, false, false, true , false, true , false, true , false, true , false, false, false, true , false, false, true , false, false, false, false, true , false, false, false, false, false, true , false, false, false, true , false, false, false
|false, false, false, false, false, false, true , false, false, false, false, false, true , false, false, true , false, false, true , false, false, false, false, true , false, false, false, false, false, false, true , true , false, false, false, false, false, true , false, false, false, true , false, false, false, false, false, true , false, true , false, true , false, true , false, false, false, false, false, true , true , false, false, false, false, true , false, false, false, false, false, true , false, false, false, false, false, false, false
|false, false, false, false, false, false, false, false, false, true , false, false, false, false, false, true , false, false, false, false, false, false, false, true , false, false, false, true , false, false, true , true , true , false, false, false, false, true , false, false, false, true , false, false, false, true , false, false, false, true , false, true , false, true , false, false, false, false, true , true , false, false, false, false, false, true , false, false, false, false, true , false, false, false, false, false, false, false, true 
|false, false, false, false, false, false, false, true , true , true , false, false, false, false, false, true , false, false, false, false, false, false, false, false, false, false, false, true , false, false, false, false, true , false, true , false, false, false, true , false, false, false, false, false, false, true , false, false, false, false, false, false, false, false, false, false, false, false, true , true , false, false, true , false, false, false, false, false, true , false, true , false, false, false, false, false, false, false, true 
|false, true , false, false, false, false, false, true , true , false, false, false, false, false, false, true , true , false, false, false, false, false, false, false, false, false, false, true , false, true , false, false, false, false, true , false, false, false, true , false, false, false, false, false, false, true , false, false, false, false, false, false, false, false, false, false, false, false, true , true , false, false, true , false, false, false, false, true , true , true , false, false, false, false, false, false, false, false, true 
|false, true , false, false, false, false, false, true , false, false, false, false, false, false, false, false, true , false, false, false, false, false, true , false, true , false, false, false, false, true , false, true , false, false, true , false, false, false, true , true , false, false, false, false, false, false, false, false, false, false, false, false, false, false, false, false, false, false, false, false, false, false, true , false, false, false, false, true , true , true , false, false, false, false, false, false, false, false, false
|false, true , false, false, false, false, false, false, false, false, false, false, true , false, false, false, true , false, false, false, false, false, true , false, true , false, false, false, false, true , false, true , false, false, false, false, false, false, false, true , false, true , false, false, false, false, false, false, false, false, true , false, false, false, false, true , false, false, false, false, false, false, false, true , false, false, false, false, false, true , false, false, false, false, false, true , false, false, false
|false, false, false, false, false, false, false, false, false, false, false, false, true , false, false, false, true , false, false, false, false, false, false, false, true , false, false, false, false, true , false, false, false, false, false, true , false, false, false, true , false, true , false, false, false, false, false, false, false, false, true , true , false, false, true , true , false, false, false, true , false, false, false, true , false, false, false, false, false, false, true , false, true , false, false, true , false, false, false
|false, false, false, false, false, false, false, false, false, false, false, false, true , false, false, false, true , false, true , false, false, false, false, false, false, false, true , false, false, true , false, false, false, false, false, true , false, false, false, false, true , true , false, false, false, false, false, false, false, false, true , true , false, false, true , true , false, false, false, true , false, true , false, false, false, false, false, false, false, false, true , false, true , false, false, true , false, false, false
|false, false, false, false, false, false, false, false, false, false, false, false, false, false, false, false, true , false, true , false, false, false, false, false, false, false, true , false, true , false, false, false, false, true , false, true , false, false, false, false, true , false, false, false, false, false, false, false, false, false, false, true , false, false, true , false, false, false, false, true , false, true , false, false, false, false, false, false, false, false, true , false, true , false, false, false, false, false, false
|true , false, false, false, false, false, true , true , false, false, true , false, false, true , true , false, false, false, true , false, false, false, false, false, false, false, false, false, true , false, true , true , false, true , false, false, false, false, false, false, true , false, false, false, false, false, false, false, false, false, false, false, false, false, true , false, false, false, false, false, false, true , false, false, true , false, true , false, true , false, false, true , false, false, false, false, false, false, false
|true , false, false, false, false, false, true , true , false, false, true , false, false, true , true , false, false, false, true , false, false, true , false, false, false, false, false, true , false, false, true , true , false, false, false, false, false, false, false, false, false, false, false, false, false, false, false, false, false, false, false, false, false, false, false, false, false, false, false, true , false, true , false, false, true , false, true , false, true , false, false, true , false, false, false, false, false, false, false
|true , false, false, false, true , false, false, false, false, false, true , false, false, false, false, false, false, false, true , false, false, true , false, false, false, false, false, true , false, false, true , false, false, false, false, false, false, false, false, false, false, false, false, false, false, false, false, true , false, false, false, false, false, false, false, false, false, false, false, true , false, true , false, false, true , false, true , false, false, false, false, false, false, false, false, false, false, false, false
|true , false, false, false, true , false, false, false, false, false, false, false, false, false, false, false, false, false, true , false, false, true , false, false, false, false, false, true , false, false, true , false, false, false, false, false, false, false, false, false, false, false, false, false, false, false, false, true , false, false, false, false, false, false, false, false, false, false, false, true , false, true , false, false, false, false, false, false, false, false, false, false, false, false, false, true , false, false, false
|true , false, false, false, false, false, false, false, false, false, false, false, false, false, false, false, false, false, true , false, false, true , false, false, false, false, false, true , false, false, true , false, false, false, false, false, false, false, false, false, false, false, false, false, false, false, false, false, false, false, false, false, false, false, false, false, false, false, false, true , false, true , false, false, false, false, false, false, false, false, false, false, false, false, false, true , false, false, false
|];
