% Synthetic instance, 25 course groups.
% Generated by scripts/academiapp/make_synthetic.py, calibrated on the
% AcademiAPP snapshot: intensity distribution, evening share, groups
% per teacher, availability density, room capacities and resource mix.
% seed=20260807 slack=1.6 availability=1.0

diurno = {1, 2, 3, 4, 5, 6, 7, 8, 9, 10, 11, 12, 17, 18, 19, 20, 21, 22, 23, 24, 25, 26, 27, 28, 33, 34, 35, 36, 37, 38, 39, 40, 41, 42, 43, 44, 49, 50, 51, 52, 53, 54, 55, 56, 57, 58, 59, 60, 65, 66, 67, 68, 69, 70, 71, 72, 73, 74, 75, 76, 81, 82, 83, 84, 85, 86, 87, 88, 89, 90, 91, 92};
nocturno = {13, 14, 15, 16, 29, 30, 31, 32, 45, 46, 47, 48, 61, 62, 63, 64, 77, 78, 79, 80, 93, 94, 95, 96};
H = 96;
asignaturas = 25;
docentes = 10;

A=[|1, 1, 100001, 1, 1, 3
|2, 1, 100002, 2, 0, 4
|2, 1, 100003, 2, 0, 3
|2, 1, 100004, 2, 0, 3
|2, 1, 100005, 2, 0, 3
|2, 1, 100006, 2, 0, 3
|2, 1, 100007, 2, 0, 3
|2, 1, 100008, 2, 0, 3
|3, 1, 100009, 3, 0, 3
|3, 1, 100010, 3, 0, 3
|3, 1, 100011, 3, 0, 3
|3, 1, 100012, 3, 0, 4
|4, 1, 100013, 4, 0, 4
|4, 1, 100014, 4, 0, 4
|4, 1, 100015, 4, 0, 4
|4, 1, 100016, 4, 0, 4
|4, 1, 100017, 4, 0, 3
|4, 1, 100018, 4, 0, 3
|4, 1, 100019, 4, 0, 3
|5, 1, 100020, 5, 0, 3
|5, 1, 100021, 5, 0, 6
|5, 1, 100022, 5, 0, 3
|5, 1, 100023, 5, 0, 3
|5, 1, 100024, 5, 0, 4
|5, 1, 100025, 5, 0, 4
|];
Da=[{1, 11, 21},
{2, 12, 22},
{3, 13, 23},
{4, 14, 24},
{5, 15, 25},
{6, 16},
{7, 17},
{8, 18},
{9, 19},
{10, 20}
];
Ad=[1, 2, 3, 4, 5, 6, 7, 8, 9, 10, 1, 2, 3, 4, 5, 6, 7, 8, 9, 10, 1, 2, 3, 4, 5];
D=[|false, false, false, false, false, false, true , true , false, false
|false, true , false, false, false, false, true , true , false, true 
|false, true , false, false, false, false, true , true , false, true 
|false, false, false, true , false, false, false, false, false, true 
|false, false, true , true , false, false, false, false, false, false
|true , false, true , false, false, false, false, false, false, false
|true , false, true , false, false, false, false, false, false, false
|true , false, false, false, false, true , false, false, false, false
|false, true , false, false, false, true , false, false, false, false
|false, true , false, false, false, true , false, false, true , false
|false, false, false, false, false, false, false, false, true , false
|false, true , false, false, false, false, false, false, true , false
|true , true , false, false, false, false, false, false, false, false
|true , false, false, false, false, false, false, false, false, false
|true , false, false, false, false, false, false, false, false, false
|true , false, false, false, false, false, false, false, false, false
|false, false, false, false, false, true , false, false, true , false
|false, false, false, false, false, true , false, false, true , false
|false, false, false, false, false, true , false, false, true , false
|false, false, false, false, false, false, false, false, false, false
|false, false, false, true , true , false, false, false, false, true 
|false, false, false, true , true , false, false, false, false, true 
|false, false, false, true , true , false, false, false, false, true 
|false, false, false, false, false, false, false, false, false, false
|false, false, false, false, false, false, false, false, false, false
|false, true , false, false, false, false, false, false, false, false
|false, true , false, false, false, false, false, false, false, false
|false, false, false, true , true , false, true , false, false, false
|false, false, false, true , true , false, true , false, false, false
|false, false, false, true , true , false, true , false, false, false
|false, false, false, false, false, false, false, false, false, false
|false, false, false, false, false, false, false, false, false, false
|true , false, false, false, false, false, false, false, false, false
|true , false, false, false, false, false, false, false, false, false
|true , false, false, false, false, false, false, false, false, false
|false, false, false, false, true , false, true , true , true , true 
|false, false, false, false, true , false, true , true , true , true 
|false, false, false, false, true , false, true , true , true , true 
|true , false, false, true , true , false, true , false, false, true 
|true , false, false, true , false, false, false, true , false, false
|true , false, false, false, false, false, false, true , false, false
|true , false, false, false, false, false, false, true , false, false
|false, false, false, false, false, false, false, false, false, false
|false, false, true , false, false, false, false, false, false, false
|false, false, true , false, true , false, true , true , false, true 
|true , false, true , false, true , false, true , true , false, true 
|true , false, false, false, true , false, true , true , false, true 
|true , false, false, false, true , false, true , true , false, true 
|false, false, false, false, false, false, true , false, false, false
|false, false, false, true , false, true , true , false, false, false
|false, false, false, true , false, true , true , false, false, false
|false, true , false, false, false, false, false, false, false, false
|false, true , false, false, false, false, false, false, false, true 
|false, true , true , false, true , false, false, false, false, true 
|false, false, true , false, true , false, false, false, false, true 
|false, false, true , false, true , false, false, false, false, false
|false, false, false, false, true , false, false, false, false, false
|true , false, false, false, false, false, false, false, false, false
|true , false, true , false, false, false, false, false, false, false
|true , true , true , false, false, false, false, false, false, false
|false, true , true , false, false, false, false, false, false, false
|false, false, true , false, false, false, false, false, false, false
|false, false, false, false, false, false, false, false, false, false
|false, false, false, false, false, false, false, false, false, false
|false, false, false, false, false, false, false, false, false, false
|false, false, false, false, false, false, false, true , true , false
|false, false, false, false, false, false, false, true , true , false
|false, false, false, false, false, false, false, true , true , false
|false, false, false, false, false, false, false, false, false, false
|false, false, false, false, false, true , false, false, false, false
|false, false, false, false, true , true , false, false, false, false
|false, false, false, false, true , true , false, false, false, false
|false, true , false, false, false, false, false, false, false, false
|false, true , false, false, false, false, false, false, false, false
|false, true , false, false, false, false, false, false, false, false
|false, true , false, false, false, false, false, false, false, false
|false, true , false, false, false, true , false, false, false, false
|false, false, false, false, false, true , false, false, false, false
|false, false, false, false, false, true , false, false, false, false
|false, false, false, false, false, true , false, false, false, false
|false, false, false, false, false, false, false, false, false, true 
|false, false, true , false, false, false, false, false, false, true 
|false, false, true , false, false, false, false, false, false, false
|false, false, false, false, false, true , false, false, false, false
|false, true , false, true , false, true , false, false, false, false
|false, true , false, true , false, false, false, false, false, false
|false, false, false, true , false, false, false, false, false, false
|false, false, false, true , false, false, false, true , false, false
|false, false, true , true , false, false, false, true , false, false
|false, false, true , false, false, false, true , true , true , false
|false, false, true , false, false, false, true , false, true , false
|false, true , false, true , false, true , true , false, true , false
|false, true , false, true , false, true , false, false, true , false
|false, false, false, true , false, false, false, false, true , false
|false, false, false, false, false, false, false, false, true , false
|false, false, false, false, false, false, false, false, true , false
|];
