% Synthetic instance, 25 course groups.
% Generated by scripts/academiapp/make_synthetic.py, calibrated on the
% AcademiAPP snapshot: intensity distribution, evening share, groups
% per teacher, availability density, room capacities and resource mix.
% seed=20260807 slack=1.6 availability=1.0

Recursos=[LabAlimentos, LabElectronica, Ninguno, SalaSistemas];
sede=12;
salones=12;
Sc=[62,62,62,62,62,62,62,62,62,62,62,62];
Sr=[Ninguno, Ninguno, Ninguno, Ninguno, Ninguno, LabAlimentos, LabAlimentos, SalaSistemas, SalaSistemas, SalaSistemas, LabElectronica, LabElectronica];
N=96;
ini=1;
fin=25;
Asig=25;
Ar=[Ninguno,Ninguno,LabAlimentos,Ninguno,Ninguno,SalaSistemas,Ninguno,SalaSistemas,Ninguno,Ninguno,SalaSistemas,Ninguno,Ninguno,Ninguno,LabElectronica,Ninguno,SalaSistemas,SalaSistemas,Ninguno,Ninguno,Ninguno,Ninguno,Ninguno,Ninguno,Ninguno];
Ae=[58,36,62,30,42,30,47,62,54,60,30,44,25,38,25,60,46,36,38,25,60,54,42,36,42];
