% Synthetic instance, 200 course groups.
% Generated by scripts/academiapp/make_synthetic.py, calibrated on the
% AcademiAPP snapshot: intensity distribution, evening share, groups
% per teacher, availability density, room capacities and resource mix.
% seed=20260807 slack=1.6 availability=1.0

Recursos=[Coliseo, LabAlimentos, LabElectronica, Ninguno, PlantaAlimentos, SalaSistemas];
sede=36;
salones=36;
Sc=[62,62,62,62,62,62,62,62,62,62,62,62,62,62,62,62,62,62,62,62,62,62,62,62,62,62,62,62,62,62,62,62,62,62,62,62];
Sr=[Ninguno, Ninguno, Ninguno, Ninguno, Ninguno, Ninguno, Ninguno, Ninguno, Ninguno, Ninguno, Ninguno, Ninguno, Ninguno, Ninguno, Ninguno, Ninguno, Ninguno, Ninguno, LabAlimentos, LabAlimentos, LabAlimentos, SalaSistemas, SalaSistemas, SalaSistemas, SalaSistemas, SalaSistemas, SalaSistemas, SalaSistemas, SalaSistemas, LabElectronica, LabElectronica, Coliseo, Coliseo, Coliseo, PlantaAlimentos, PlantaAlimentos];
N=96;
ini=1;
fin=200;
Asig=200;
Ar=[Ninguno,Ninguno,Ninguno,Ninguno,Ninguno,LabAlimentos,Ninguno,Ninguno,Ninguno,SalaSistemas,Ninguno,Ninguno,Ninguno,Ninguno,Ninguno,Ninguno,Ninguno,Ninguno,Ninguno,Ninguno,LabElectronica,Ninguno,Ninguno,Ninguno,SalaSistemas,Ninguno,Ninguno,Ninguno,SalaSistemas,Ninguno,Coliseo,Ninguno,Ninguno,Ninguno,Ninguno,Ninguno,Ninguno,SalaSistemas,Ninguno,Ninguno,Ninguno,Ninguno,SalaSistemas,Ninguno,SalaSistemas,Ninguno,SalaSistemas,SalaSistemas,Ninguno,Ninguno,SalaSistemas,Ninguno,SalaSistemas,Ninguno,Ninguno,SalaSistemas,SalaSistemas,SalaSistemas,Ninguno,Ninguno,SalaSistemas,Ninguno,Ninguno,SalaSistemas,Ninguno,SalaSistemas,Ninguno,Ninguno,Ninguno,Ninguno,Ninguno,Ninguno,Ninguno,Ninguno,Ninguno,SalaSistemas,SalaSistemas,Ninguno,Ninguno,Ninguno,SalaSistemas,SalaSistemas,Ninguno,LabAlimentos,Coliseo,Ninguno,SalaSistemas,Ninguno,Ninguno,LabAlimentos,Ninguno,Ninguno,Ninguno,SalaSistemas,Ninguno,Ninguno,Ninguno,Ninguno,Ninguno,SalaSistemas,Ninguno,SalaSistemas,Ninguno,SalaSistemas,Ninguno,LabAlimentos,SalaSistemas,Ninguno,SalaSistemas,LabAlimentos,Ninguno,Ninguno,SalaSistemas,SalaSistemas,Ninguno,Ninguno,Ninguno,Ninguno,Ninguno,Ninguno,Ninguno,LabAlimentos,LabElectronica,Ninguno,SalaSistemas,Ninguno,SalaSistemas,Ninguno,Ninguno,Ninguno,Ninguno,SalaSistemas,Ninguno,Ninguno,SalaSistemas,Ninguno,Ninguno,Ninguno,Ninguno,SalaSistemas,Ninguno,Coliseo,Coliseo,SalaSistemas,SalaSistemas,Ninguno,Ninguno,Ninguno,Ninguno,Ninguno,Ninguno,LabAlimentos,Ninguno,Ninguno,Ninguno,SalaSistemas,Ninguno,Ninguno,Ninguno,Ninguno,Ninguno,Coliseo,SalaSistemas,SalaSistemas,Ninguno,Ninguno,Ninguno,PlantaAlimentos,Ninguno,Ninguno,Ninguno,Ninguno,Ninguno,Ninguno,SalaSistemas,SalaSistemas,Ninguno,SalaSistemas,Ninguno,Ninguno,Ninguno,Coliseo,Ninguno,Ninguno,Ninguno,Ninguno,Ninguno,SalaSistemas,SalaSistemas,Ninguno,Ninguno,Ninguno,Ninguno,SalaSistemas,Ninguno,Ninguno,Ninguno,Ninguno,Ninguno,Ninguno];
Ae=[30,30,36,42,39,42,42,60,36,39,54,36,30,25,54,25,40,30,46,36,60,60,60,30,54,54,37,44,30,36,38,40,60,42,30,28,37,38,37,42,30,62,28,54,36,54,40,60,54,60,44,53,37,58,25,25,28,62,54,42,39,25,44,55,28,25,60,25,60,40,55,42,60,36,55,25,58,25,36,25,39,36,25,53,46,58,40,47,54,25,25,44,25,58,25,25,28,30,60,30,55,30,62,60,38,53,28,58,25,39,25,42,42,30,39,38,42,62,25,42,25,28,30,28,60,46,42,25,30,58,53,37,30,30,47,36,54,40,30,25,44,58,58,30,54,58,40,54,40,47,37,46,30,42,36,25,37,36,25,25,25,42,30,54,62,55,62,54,37,42,44,47,30,36,25,62,25,40,53,30,36,30,36,40,42,42,47,25,25,47,25,44,37,25,30,30,54,37,36,58];
