% Synthetic instance, 50 course groups.
% Generated by scripts/academiapp/make_synthetic.py, calibrated on the
% AcademiAPP snapshot: intensity distribution, evening share, groups
% per teacher, availability density, room capacities and resource mix.
% seed=20260807 slack=1.6 availability=1.0

diurno = {1, 2, 3, 4, 5, 6, 7, 8, 9, 10, 11, 12, 17, 18, 19, 20, 21, 22, 23, 24, 25, 26, 27, 28, 33, 34, 35, 36, 37, 38, 39, 40, 41, 42, 43, 44, 49, 50, 51, 52, 53, 54, 55, 56, 57, 58, 59, 60, 65, 66, 67, 68, 69, 70, 71, 72, 73, 74, 75, 76, 81, 82, 83, 84, 85, 86, 87, 88, 89, 90, 91, 92};
nocturno = {13, 14, 15, 16, 29, 30, 31, 32, 45, 46, 47, 48, 61, 62, 63, 64, 77, 78, 79, 80, 93, 94, 95, 96};
H = 96;
asignaturas = 50;
docentes = 20;

A=[|1, 1, 100001, 1, 0, 3
|1, 1, 100002, 1, 0, 4
|1, 1, 100003, 1, 0, 2
|1, 1, 100004, 1, 0, 3
|1, 1, 100005, 1, 0, 3
|1, 1, 100006, 1, 0, 3
|1, 1, 100007, 1, 0, 4
|2, 1, 100008, 2, 1, 4
|2, 1, 100009, 2, 1, 4
|3, 1, 100010, 3, 0, 3
|4, 1, 100011, 4, 0, 4
|4, 1, 100012, 4, 0, 4
|4, 1, 100013, 4, 0, 3
|4, 1, 100014, 4, 0, 3
|4, 1, 100015, 4, 0, 3
|4, 1, 100016, 4, 0, 2
|5, 1, 100017, 5, 0, 4
|5, 1, 100018, 5, 0, 4
|5, 1, 100019, 5, 0, 3
|5, 1, 100020, 5, 0, 4
|5, 1, 100021, 5, 0, 3
|5, 1, 100022, 5, 0, 4
|5, 1, 100023, 5, 0, 3
|5, 1, 100024, 5, 0, 1
|6, 1, 100025, 6, 1, 3
|6, 1, 100026, 6, 1, 3
|6, 1, 100027, 6, 1, 4
|6, 1, 100028, 6, 1, 3
|6, 1, 100029, 6, 1, 2
|8, 1, 100030, 7, 0, 5
|8, 1, 100031, 7, 0, 3
|8, 1, 100032, 7, 0, 3
|8, 1, 100033, 7, 0, 3
|8, 1, 100034, 7, 0, 3
|8, 1, 100035, 7, 0, 4
|8, 1, 100036, 7, 0, 4
|8, 1, 100037, 7, 0, 4
|9, 1, 100038, 8, 0, 3
|9, 1, 100039, 8, 0, 4
|9, 1, 100040, 8, 0, 3
|9, 1, 100041, 8, 0, 4
|9, 1, 100042, 8, 0, 3
|9, 1, 100043, 8, 0, 4
|9, 1, 100044, 8, 0, 4
|10, 1, 100045, 9, 0, 3
|10, 1, 100046, 9, 0, 3
|10, 1, 100047, 9, 0, 3
|10, 1, 100048, 9, 0, 4
|10, 1, 100049, 9, 0, 3
|10, 1, 100050, 9, 0, 3
|];
Da=[{1, 21, 41},
{2, 22, 42},
{3, 23, 43},
{4, 24, 44},
{5, 25, 45},
{6, 26, 46},
{7, 27, 47},
{8, 28, 48},
{9, 29, 49},
{10, 30, 50},
{11, 31},
{12, 32},
{13, 33},
{14, 34},
{15, 35},
{16, 36},
{17, 37},
{18, 38},
{19, 39},
{20, 40}
];
Ad=[1, 2, 3, 4, 5, 6, 7, 8, 9, 10, 11, 12, 13, 14, 15, 16, 17, 18, 19, 20, 1, 2, 3, 4, 5, 6, 7, 8, 9, 10, 11, 12, 13, 14, 15, 16, 17, 18, 19, 20, 1, 2, 3, 4, 5, 6, 7, 8, 9, 10];
D=[|false, false, true , false, false, false, false, false, false, false, false, true , false, true , false, false, true , false, false, false
|false, true , true , false, false, false, false, false, false, false, false, true , true , true , false, false, true , false, false, false
|false, true , false, false, true , false, false, false, false, false, false, true , true , true , false, false, false, false, false, false
|false, true , false, false, true , false, false, false, false, false, false, false, true , false, false, false, false, false, false, false
|false, false, false, false, true , false, false, false, false, true , false, false, false, false, true , false, false, false, false, false
|false, false, false, false, false, false, false, false, false, true , false, false, false, false, true , false, true , false, false, false
|false, false, false, false, false, false, false, false, false, true , false, false, false, false, true , false, true , false, false, false
|false, true , false, false, false, false, false, false, false, false, false, true , false, false, false, false, false, false, false, false
|false, true , false, false, false, false, false, false, false, false, false, true , false, false, true , false, false, false, false, false
|false, false, false, false, false, false, false, false, false, false, false, true , false, false, true , false, false, false, false, false
|false, false, true , false, false, false, false, false, false, false, false, false, false, false, true , true , false, false, false, false
|false, false, true , true , false, false, false, false, false, true , false, false, false, false, true , true , false, false, false, false
|false, false, false, true , false, false, true , false, false, true , false, false, true , false, true , false, false, false, false, false
|false, false, false, false, false, false, true , false, false, false, false, false, true , false, true , false, false, false, false, false
|false, false, false, false, false, false, false, false, false, false, false, false, true , false, false, false, false, false, false, false
|false, false, false, false, false, false, false, false, false, false, false, false, true , false, false, false, false, false, false, false
|false, false, true , true , true , false, false, false, false, false, false, false, false, false, false, true , false, false, false, false
|false, false, true , true , true , false, false, false, false, false, false, false, false, false, false, true , false, false, false, false
|false, false, false, true , true , false, false, false, false, false, false, false, false, false, true , false, false, false, false, false
|false, false, false, false, false, false, false, false, false, false, false, false, false, false, true , false, false, false, false, false
|false, true , true , false, false, false, false, false, false, true , true , true , false, false, false, true , false, false, false, false
|false, true , true , false, false, false, false, false, false, true , true , true , false, false, false, true , false, false, false, false
|true , false, true , true , false, false, false, false, false, true , true , false, false, false, false, true , false, false, false, false
|true , false, false, true , false, false, false, false, false, false, false, false, false, false, false, false, true , true , false, true 
|true , false, false, false, false, false, false, false, false, false, false, false, false, false, false, false, true , true , false, true 
|true , false, false, false, false, false, false, false, false, false, false, false, false, false, false, false, true , true , false, false
|true , false, false, false, false, false, false, false, false, false, false, false, false, false, false, false, true , false, false, false
|true , false, false, false, false, false, false, false, false, false, false, true , false, false, false, true , false, false, false, false
|true , false, true , false, false, true , false, false, false, false, false, true , false, false, true , true , false, false, false, false
|true , false, true , false, true , true , false, false, false, false, false, false, false, false, true , true , false, false, false, false
|false, false, true , false, true , true , false, false, false, false, false, false, false, false, true , false, false, false, false, false
|false, false, true , false, true , true , false, false, false, false, false, false, false, false, true , false, false, false, false, false
|false, false, false, false, true , false, true , false, true , false, false, false, true , false, false, false, false, false, false, false
|false, false, false, false, true , false, true , false, true , false, true , false, true , false, false, false, false, false, false, false
|false, false, false, false, true , false, true , false, true , false, true , false, true , false, true , false, false, false, false, false
|false, false, false, false, false, false, true , false, false, false, true , false, false, false, true , true , false, false, false, false
|false, true , false, false, false, false, false, false, false, false, false, false, false, false, false, true , false, false, false, false
|false, true , false, false, false, false, false, false, false, false, false, false, false, false, false, true , false, true , false, false
|false, true , false, false, false, false, false, false, false, false, false, false, false, false, false, false, false, true , false, false
|false, false, false, false, false, false, false, true , false, false, false, false, false, false, false, false, false, true , false, false
|true , false, false, false, false, false, false, true , false, false, false, false, false, false, false, false, false, false, false, false
|true , false, false, false, false, false, false, true , false, false, false, false, false, false, false, false, false, false, false, false
|true , false, false, false, false, false, false, false, false, true , false, false, false, false, false, false, false, false, false, false
|true , true , false, false, false, false, false, false, false, true , false, true , false, false, false, false, false, true , false, false
|true , true , false, false, false, false, false, false, true , false, false, true , false, false, false, true , false, true , false, false
|false, true , false, false, false, false, false, false, true , false, false, true , false, false, false, true , false, true , false, false
|false, false, false, false, false, false, false, true , true , false, false, false, false, false, false, true , false, false, false, false
|false, false, false, false, false, false, false, true , true , false, false, false, false, false, false, true , false, false, false, false
|false, false, false, false, true , true , false, true , false, false, false, false, false, false, false, false, false, true , false, false
|false, false, false, false, true , true , false, true , false, false, false, false, false, false, false, false, false, true , false, true 
|false, false, false, false, false, false, false, true , false, false, false, false, false, false, false, false, false, true , false, true 
|false, false, false, false, false, false, false, false, false, false, false, false, false, false, false, false, true , true , false, true 
|false, false, true , true , false, false, false, false, false, false, false, false, false, false, false, false, true , false, false, false
|false, false, true , true , false, false, false, false, false, false, false, false, false, false, false, false, false, false, false, false
|false, false, true , false, false, false, false, false, false, false, false, false, false, false, false, false, false, false, false, false
|false, false, false, false, false, true , false, false, false, false, false, true , false, false, false, false, true , false, true , false
|false, false, false, false, false, true , false, false, false, false, false, true , false, false, false, false, true , false, true , false
|false, false, false, false, false, true , false, true , true , false, false, false, false, false, false, false, false, false, true , true 
|false, false, false, false, false, true , false, true , true , false, false, false, false, false, false, false, false, false, true , true 
|false, true , false, true , false, true , false, false, true , false, true , false, false, false, false, false, false, false, true , true 
|false, true , false, true , false, false, false, false, false, true , true , false, false, false, false, false, false, true , true , true 
|false, true , false, true , false, false, false, false, false, true , true , false, false, false, false, false, false, true , true , true 
|false, false, false, true , false, false, true , false, true , true , false, false, false, false, false, false, false, true , true , true 
|false, false, false, true , false, false, true , false, true , true , false, false, false, false, false, false, false, true , true , true 
|false, false, false, false, false, true , true , false, false, true , false, false, false, false, false, false, true , false, true , false
|false, false, false, false, false, true , true , false, false, true , true , false, false, false, false, false, true , false, true , false
|false, false, false, false, false, true , true , false, false, false, true , false, false, false, false, false, false, false, true , false
|false, false, false, false, false, false, false, false, true , false, false, false, false, false, false, false, false, false, false, false
|false, false, false, false, false, false, false, false, true , false, true , false, false, true , false, true , false, false, true , false
|false, false, false, false, false, false, false, false, true , false, true , false, false, true , false, true , false, false, true , false
|false, false, false, false, false, false, false, false, false, false, true , false, false, true , false, false, false, false, true , false
|false, false, false, true , false, false, false, false, false, false, false, false, false, true , false, false, false, false, false, false
|false, true , false, true , false, false, false, true , false, false, false, false, true , true , false, false, false, false, false, false
|false, true , false, true , false, false, false, true , false, false, false, false, true , false, true , false, false, false, false, false
|false, true , false, false, false, false, false, false, false, false, false, false, true , false, true , false, false, false, false, false
|false, true , false, true , false, false, false, false, false, false, true , true , false, false, true , false, false, false, false, false
|false, false, false, false, false, false, false, false, false, false, true , true , false, false, false, false, true , false, false, false
|false, false, false, false, false, true , false, true , false, false, true , false, false, false, false, false, true , false, false, false
|false, false, false, false, false, true , false, true , false, false, false, false, false, false, false, false, true , false, false, false
|false, false, false, false, false, true , false, false, false, false, false, false, false, false, false, false, true , false, false, false
|false, false, false, false, false, true , true , false, false, false, false, false, true , false, false, false, false, false, false, false
|false, false, false, false, false, true , true , false, true , false, false, false, true , true , false, false, false, false, false, true 
|false, false, false, false, false, true , true , false, true , false, false, false, true , true , false, false, false, false, false, true 
|true , false, true , false, false, false, false, false, true , false, false, true , false, true , false, true , false, false, false, false
|true , false, true , false, false, false, false, false, true , false, false, true , false, false, false, true , false, false, false, false
|true , false, false, false, false, false, false, false, true , false, false, true , false, false, false, true , false, false, false, false
|false, false, false, false, false, false, false, false, true , true , false, false, false, false, false, false, false, false, false, false
|false, false, false, true , false, false, false, false, false, true , true , false, false, false, false, false, false, false, false, false
|true , false, false, true , true , false, true , false, false, true , true , false, false, true , false, false, false, true , false, true 
|true , false, false, true , true , false, true , true , false, false, false, false, true , true , false, false, false, true , false, true 
|false, false, false, false, true , false, true , true , false, false, false, false, true , true , false, false, false, true , true , true 
|true , false, false, false, true , false, false, true , false, false, false, false, true , false, false, false, false, false, true , false
|true , false, false, false, true , false, false, true , false, false, false, false, false, true , false, false, false, false, false, false
|false, false, false, false, false, false, false, true , false, false, false, false, false, true , false, false, false, false, false, false
|false, false, false, false, false, false, false, true , false, false, false, false, false, true , false, false, false, false, false, false
|false, false, false, false, false, false, false, false, false, false, false, false, false, true , false, false, false, false, false, false
|];
