% Synthetic instance, 100 course groups.
% Generated by scripts/academiapp/make_synthetic.py, calibrated on the
% AcademiAPP snapshot: intensity distribution, evening share, groups
% per teacher, availability density, room capacities and resource mix.
% seed=20260807 slack=1.6 availability=1.0

diurno = {1, 2, 3, 4, 5, 6, 7, 8, 9, 10, 11, 12, 17, 18, 19, 20, 21, 22, 23, 24, 25, 26, 27, 28, 33, 34, 35, 36, 37, 38, 39, 40, 41, 42, 43, 44, 49, 50, 51, 52, 53, 54, 55, 56, 57, 58, 59, 60, 65, 66, 67, 68, 69, 70, 71, 72, 73, 74, 75, 76, 81, 82, 83, 84, 85, 86, 87, 88, 89, 90, 91, 92};
nocturno = {13, 14, 15, 16, 29, 30, 31, 32, 45, 46, 47, 48, 61, 62, 63, 64, 77, 78, 79, 80, 93, 94, 95, 96};
H = 96;
asignaturas = 100;
docentes = 39;

A=[|1, 1, 100001, 1, 0, 4
|1, 1, 100002, 1, 0, 3
|1, 1, 100003, 1, 0, 3
|1, 1, 100004, 1, 0, 4
|1, 1, 100005, 1, 0, 4
|1, 1, 100006, 1, 0, 4
|1, 1, 100007, 1, 0, 3
|1, 1, 100008, 1, 0, 4
|2, 1, 100009, 2, 0, 3
|2, 1, 100010, 2, 0, 3
|2, 1, 100011, 2, 0, 4
|2, 1, 100012, 2, 0, 3
|2, 1, 100013, 2, 0, 4
|2, 1, 100014, 2, 0, 3
|2, 1, 100015, 2, 0, 3
|3, 1, 100016, 3, 1, 3
|3, 1, 100017, 3, 1, 3
|3, 1, 100018, 3, 1, 3
|3, 1, 100019, 3, 1, 4
|4, 1, 100020, 4, 0, 3
|4, 1, 100021, 4, 0, 3
|4, 1, 100022, 4, 0, 3
|4, 1, 100023, 4, 0, 3
|4, 1, 100024, 4, 0, 3
|4, 1, 100025, 4, 0, 4
|4, 1, 100026, 4, 0, 3
|4, 1, 100027, 4, 0, 6
|5, 1, 100028, 5, 0, 4
|5, 1, 100029, 5, 0, 6
|5, 1, 100030, 5, 0, 3
|5, 1, 100031, 5, 0, 5
|5, 1, 100032, 5, 0, 3
|5, 1, 100033, 5, 0, 3
|6, 1, 100034, 6, 0, 3
|6, 1, 100035, 6, 0, 2
|6, 1, 100036, 6, 0, 4
|6, 1, 100037, 6, 0, 3
|6, 1, 100038, 6, 0, 3
|6, 1, 100039, 6, 0, 4
|6, 1, 100040, 6, 0, 3
|8, 1, 100041, 7, 0, 4
|8, 1, 100042, 7, 0, 3
|8, 1, 100043, 7, 0, 4
|8, 1, 100044, 7, 0, 3
|8, 1, 100045, 7, 0, 3
|8, 1, 100046, 7, 0, 4
|8, 1, 100047, 7, 0, 3
|9, 1, 100048, 8, 0, 3
|9, 1, 100049, 8, 0, 4
|9, 1, 100050, 8, 0, 4
|9, 1, 100051, 8, 0, 3
|9, 1, 100052, 8, 0, 4
|9, 1, 100053, 8, 0, 1
|10, 1, 100054, 9, 1, 4
|10, 1, 100055, 9, 1, 3
|10, 1, 100056, 9, 1, 3
|10, 1, 100057, 9, 1, 4
|11, 1, 100058, 10, 1, 3
|11, 1, 100059, 10, 1, 4
|11, 1, 100060, 10, 1, 3
|11, 1, 100061, 10, 1, 4
|12, 1, 100062, 11, 0, 3
|12, 1, 100063, 11, 0, 4
|12, 1, 100064, 11, 0, 4
|12, 1, 100065, 11, 0, 1
|12, 1, 100066, 11, 0, 4
|13, 1, 100067, 12, 1, 4
|13, 1, 100068, 12, 1, 4
|13, 1, 100069, 12, 1, 3
|13, 1, 100070, 12, 1, 3
|1, 2, 100071, 13, 1, 4
|1, 2, 100072, 13, 1, 4
|1, 2, 100073, 13, 1, 3
|1, 2, 100074, 13, 1, 4
|2, 2, 100075, 14, 0, 4
|2, 2, 100076, 14, 0, 3
|2, 2, 100077, 14, 0, 4
|2, 2, 100078, 14, 0, 6
|2, 2, 100079, 14, 0, 3
|2, 2, 100080, 14, 0, 4
|2, 2, 100081, 14, 0, 4
|3, 2, 100082, 15, 0, 3
|3, 2, 100083, 15, 0, 3
|3, 2, 100084, 15, 0, 3
|3, 2, 100085, 15, 0, 6
|3, 2, 100086, 15, 0, 4
|3, 2, 100087, 15, 0, 4
|4, 2, 100088, 16, 0, 3
|4, 2, 100089, 16, 0, 4
|4, 2, 100090, 16, 0, 3
|4, 2, 100091, 16, 0, 5
|4, 2, 100092, 16, 0, 4
|4, 2, 100093, 16, 0, 4
|5, 2, 100094, 17, 0, 3
|5, 2, 100095, 17, 0, 3
|5, 2, 100096, 17, 0, 4
|5, 2, 100097, 17, 0, 4
|5, 2, 100098, 17, 0, 4
|5, 2, 100099, 17, 0, 3
|6, 2, 100100, 18, 1, 3
|];
Da=[{1, 40, 79},
{2, 41, 80},
{3, 42, 81},
{4, 43, 82},
{5, 44, 83},
{6, 45, 84},
{7, 46, 85},
{8, 47, 86},
{9, 48, 87},
{10, 49, 88},
{11, 50, 89},
{12, 51, 90},
{13, 52, 91},
{14, 53, 92},
{15, 54, 93},
{16, 55, 94},
{17, 56, 95},
{18, 57, 96},
{19, 58, 97},
{20, 59, 98},
{21, 60, 99},
{22, 61, 100},
{23, 62},
{24, 63},
{25, 64},
{26, 65},
{27, 66},
{28, 67},
{29, 68},
{30, 69},
{31, 70},
{32, 71},
{33, 72},
{34, 73},
{35, 74},
{36, 75},
{37, 76},
{38, 77},
{39, 78}
];
Ad=[1, 2, 3, 4, 5, 6, 7, 8, 9, 10, 11, 12, 13, 14, 15, 16, 17, 18, 19, 20, 21, 22, 23, 24, 25, 26, 27, 28, 29, 30, 31, 32, 33, 34, 35, 36, 37, 38, 39, 1, 2, 3, 4, 5, 6, 7, 8, 9, 10, 11, 12, 13, 14, 15, 16, 17, 18, 19, 20, 21, 22, 23, 24, 25, 26, 27, 28, 29, 30, 31, 32, 33, 34, 35, 36, 37, 38, 39, 1, 2, 3, 4, 5, 6, 7, 8, 9, 10, 11, 12, 13, 14, 15, 16, 17, 18, 19, 20, 21, 22];
D=[|false, true , false, false, false, false, false, false, false, false, false, false, false, false, false, false, true , false, true , false, true , false, false, false, true , true , false, false, false, false, false, false, false, true , false, false, false, false, false
|false, true , false, false, false, false, true , false, true , false, false, false, false, false, true , false, true , false, true , true , true , false, false, false, true , true , false, false, false, false, false, false, true , true , false, false, false, false, false
|false, true , false, false, false, false, true , false, true , false, false, false, false, false, true , false, true , false, false, true , false, false, false, false, false, true , false, false, false, false, false, false, true , true , false, false, false, false, false
|false, false, false, true , false, false, false, false, true , false, false, false, false, false, false, false, false, false, false, true , false, false, false, false, false, false, false, false, false, false, false, false, true , true , false, false, false, false, false
|false, false, false, true , false, false, false, false, true , false, false, false, false, false, false, false, false, false, false, false, false, false, false, false, false, false, false, true , false, false, false, false, false, true , false, false, false, false, false
|false, false, false, false, true , false, true , false, true , false, false, false, false, false, false, false, false, false, false, false, false, false, false, false, false, false, false, true , false, false, false, false, false, false, false, false, false, false, false
|false, false, false, false, true , false, true , false, false, false, false, false, true , false, false, false, false, false, false, false, false, false, false, false, false, false, false, true , false, false, false, false, false, false, false, false, false, false, false
|false, false, false, false, false, true , true , false, false, false, false, false, true , false, false, false, false, false, false, false, false, false, false, false, false, false, false, false, false, false, false, false, true , false, false, false, false, false, false
|false, false, false, false, false, true , false, true , false, false, false, false, false, false, false, false, false, false, false, false, true , false, false, false, false, false, false, true , false, false, false, false, true , false, false, false, false, false, false
|false, false, false, false, true , true , false, true , false, false, false, true , false, false, false, false, true , false, false, false, true , true , false, false, false, false, false, true , false, false, false, false, true , false, true , true , false, false, false
|false, true , false, false, true , false, false, false, false, false, false, true , false, false, false, false, true , false, false, false, true , true , false, false, false, false, false, true , false, false, false, false, false, false, true , true , false, false, false
|false, true , false, true , true , true , false, false, true , false, false, true , false, false, false, false, true , false, false, false, false, true , false, false, false, false, false, true , false, true , false, false, false, false, true , true , true , false, false
|false, false, true , true , false, true , true , false, true , false, true , false, false, false, false, false, true , false, false, false, false, true , false, false, false, false, false, false, false, true , false, false, false, false, false, true , true , false, false
|false, false, true , true , false, false, true , false, true , false, true , false, false, false, false, false, true , false, false, false, false, true , false, false, false, false, false, true , false, true , false, false, false, false, false, true , false, false, false
|false, false, true , false, false, false, true , false, false, false, true , false, false, false, false, false, true , false, true , true , false, true , false, false, false, false, false, true , false, false, false, false, false, false, true , true , false, false, false
|false, false, true , false, false, false, true , false, false, false, true , false, false, false, false, false, false, false, true , true , false, false, false, false, false, false, false, false, false, false, false, false, false, false, true , true , false, false, false
|false, false, false, false, false, false, false, false, false, false, false, false, true , false, false, false, false, false, false, false, false, false, false, false, false, true , false, false, false, false, true , false, false, true , false, false, false, false, false
|false, false, false, true , false, false, false, false, false, false, false, false, true , false, false, false, false, false, true , false, false, false, true , false, false, true , false, true , true , false, true , true , false, true , false, true , false, false, false
|false, false, false, true , false, false, false, false, false, false, false, false, false, true , false, false, false, false, true , false, false, false, true , false, false, true , false, true , true , false, false, true , false, true , false, true , false, false, true 
|false, false, false, false, false, false, false, false, false, false, false, false, false, true , false, false, false, false, true , false, false, false, true , false, false, false, false, true , true , false, true , true , false, false, false, false, false, false, true 
|false, false, false, false, false, false, false, false, false, false, false, false, false, true , false, false, false, false, false, false, false, false, false, false, false, false, false, true , false, false, true , false, false, false, false, false, false, false, true 
|false, false, false, false, false, false, false, false, true , false, false, false, false, true , false, false, false, false, false, false, false, false, false, false, false, false, false, true , false, false, true , false, false, false, false, false, false, false, true 
|false, false, false, false, false, false, false, false, true , false, false, false, false, false, false, false, false, false, false, false, false, false, false, false, false, false, false, false, false, false, false, false, false, false, false, false, false, false, true 
|false, false, false, false, false, false, false, false, true , true , false, false, false, false, false, false, false, false, false, false, false, false, false, false, false, false, false, false, false, false, false, false, false, false, true , false, false, false, false
|false, false, true , false, false, false, false, false, false, true , false, false, false, false, false, false, false, false, false, false, true , true , false, false, false, false, false, false, false, false, false, false, false, false, true , false, false, false, false
|false, false, true , false, false, false, false, false, true , true , true , false, false, false, false, false, true , false, false, false, true , true , false, true , false, false, false, false, false, false, false, false, false, false, false, false, false, false, false
|false, false, true , false, false, false, false, false, true , false, true , false, false, false, false, false, true , false, false, false, true , true , false, true , false, false, false, false, false, false, false, false, false, false, false, false, false, true , false
|true , false, false, true , false, false, true , false, true , false, false, false, false, false, false, false, true , false, false, false, false, false, false, false, true , false, false, false, false, false, false, false, false, true , false, false, false, true , false
|true , false, false, true , false, false, true , false, false, true , false, false, false, false, true , false, false, true , false, false, false, false, false, false, true , false, false, false, false, false, false, false, false, true , false, false, false, false, false
|false, false, false, false, false, false, false, false, false, true , false, false, false, false, true , false, false, true , false, false, false, false, false, false, true , false, false, false, false, true , false, false, false, true , false, false, false, false, false
|false, false, false, false, false, false, false, false, false, true , false, false, false, false, false, false, false, true , false, false, false, true , false, false, false, false, false, false, false, true , false, false, true , false, false, false, false, false, false
|false, false, false, false, false, false, false, false, false, true , false, false, false, false, false, false, false, false, false, false, false, true , false, false, false, false, false, false, false, true , false, false, true , false, false, false, false, false, false
|true , false, false, false, false, true , false, false, false, true , false, false, false, false, true , false, false, false, false, false, false, true , false, false, false, false, true , true , true , false, false, true , true , false, false, true , false, false, false
|true , false, false, false, false, true , false, false, false, true , true , false, false, false, true , false, false, true , false, true , false, true , false, false, false, false, true , true , true , false, false, true , true , false, false, true , false, false, false
|false, false, false, false, false, true , false, false, false, true , true , false, false, false, true , false, false, true , false, true , false, false, false, false, false, false, true , true , true , true , false, false, false, false, false, true , false, false, false
|false, false, false, false, false, true , false, false, false, false, false, false, true , false, true , false, false, true , true , true , true , false, false, false, false, false, false, false, false, true , false, true , false, false, true , false, false, false, false
|false, false, true , false, false, true , false, false, false, false, true , false, true , false, false, false, false, false, true , false, true , false, false, false, false, false, false, false, false, true , false, true , false, false, true , true , false, false, false
|true , false, true , false, false, true , false, false, false, false, true , false, false, false, false, false, false, false, true , false, true , false, false, false, false, false, false, false, false, false, false, true , false, false, true , true , false, false, false
|true , false, true , false, false, true , false, false, false, false, false, false, false, false, false, false, false, false, false, false, false, false, true , false, false, false, false, false, false, false, false, false, false, false, false, true , true , false, false
|true , false, false, true , false, false, false, true , false, false, true , true , false, true , false, false, false, false, false, false, false, false, true , false, false, true , false, false, false, false, false, false, true , false, false, false, true , false, false
|false, false, false, true , false, false, false, true , false, false, true , true , false, true , false, false, false, false, false, true , false, false, true , false, true , true , false, false, false, true , false, false, true , false, false, true , true , false, false
|true , false, false, true , false, false, true , false, false, false, false, true , false, false, false, false, false, false, false, true , false, false, false, true , true , true , false, false, false, true , true , false, true , false, false, true , false, false, false
|true , true , false, false, false, false, true , false, false, false, false, false, false, false, false, false, false, false, false, false, false, false, false, true , false, false, false, false, false, true , true , false, true , false, false, true , false, false, false
|true , true , false, false, false, false, true , false, true , false, false, false, false, false, false, false, false, false, false, false, false, false, false, true , false, false, false, false, false, false, true , false, false, false, false, false, false, false, false
|false, true , false, false, false, false, false, true , true , false, false, false, false, false, false, true , false, false, false, false, false, false, false, false, false, false, false, false, false, false, false, false, false, true , false, false, false, true , false
|false, false, false, false, false, false, false, true , false, false, false, false, false, false, false, true , false, false, false, true , false, false, false, false, false, false, false, false, false, false, true , false, false, true , false, false, false, true , false
|false, false, false, false, false, false, false, true , false, false, false, false, false, false, false, true , false, false, false, true , false, false, false, false, false, false, false, false, false, false, true , false, false, true , false, false, false, true , false
|false, false, false, false, false, false, false, true , false, false, false, false, false, false, false, false, false, false, false, false, false, false, false, false, false, false, false, false, false, false, true , false, false, false, false, false, false, true , false
|false, false, false, false, false, false, false, false, false, false, false, false, false, true , false, false, false, false, false, false, false, true , true , false, false, false, false, false, true , false, false, false, false, false, true , false, true , false, false
|false, true , false, false, false, false, true , false, false, false, false, false, false, true , false, false, false, false, false, false, false, true , true , false, false, false, false, false, true , false, false, true , false, false, true , false, true , false, false
|false, true , false, true , false, false, true , false, false, false, true , false, false, true , false, false, false, false, false, false, false, true , true , false, false, true , false, false, true , false, false, true , false, false, false, false, true , false, false
|false, false, false, true , false, false, true , false, false, false, true , false, false, false, false, true , false, false, false, true , false, false, false, false, true , false, false, false, false, false, false, true , false, false, false, true , false, false, false
|false, false, false, false, false, false, false, true , false, false, false, false, false, false, false, true , false, false, true , true , false, false, false, false, true , false, false, false, false, false, false, false, false, false, false, true , false, false, false
|false, false, true , false, false, true , false, true , false, false, false, false, false, false, false, true , false, false, true , true , false, false, false, false, true , false, true , false, false, false, false, false, false, false, false, false, false, false, false
|false, false, true , false, false, true , false, true , true , false, false, false, false, false, false, false, false, false, false, false, false, false, true , false, false, false, true , false, false, false, false, false, false, false, false, false, false, false, false
|false, false, false, false, false, false, true , false, true , false, false, true , false, false, false, false, true , false, false, false, false, false, true , false, false, false, false, false, false, false, false, false, false, false, false, false, true , false, true 
|false, false, false, true , false, false, true , false, false, false, false, true , false, false, false, false, true , false, false, false, false, false, true , false, false, false, false, false, false, false, false, false, false, false, true , false, true , false, true 
|false, false, false, true , true , false, false, false, false, false, false, true , false, false, false, true , true , false, false, false, true , false, true , false, false, false, false, false, true , true , false, false, true , false, true , false, true , false, false
|false, false, false, true , true , false, false, false, false, false, false, true , false, false, false, true , false, false, false, false, true , false, true , false, false, false, false, false, true , true , false, false, true , false, true , false, false, true , false
|false, false, false, false, true , true , false, false, true , false, false, true , false, false, false, true , false, false, false, false, true , false, false, false, true , false, false, false, true , true , false, false, true , false, false, true , false, true , false
|false, true , false, false, true , true , false, false, true , false, false, true , true , true , false, false, false, false, true , false, false, false, false, false, true , false, false, false, false, false, true , false, true , false, false, true , false, false, true 
|false, true , false, false, true , true , false, false, false, false, false, false, true , true , false, false, true , false, true , false, false, false, false, false, false, false, false, false, false, false, true , false, true , false, false, false, false, false, true 
|false, true , false, false, true , false, false, false, false, false, false, false, true , true , false, false, true , true , true , false, false, false, false, false, false, false, false, false, true , false, true , true , false, false, false, false, false, false, true 
|false, true , false, false, true , false, false, false, false, false, false, false, true , true , false, false, true , true , false, false, false, false, false, false, false, false, false, false, true , false, true , true , false, false, false, false, false, false, true 
|false, false, false, false, false, true , false, false, false, false, false, false, true , false, false, false, false, false, false, false, false, false, false, false, false, false, true , false, false, false, false, false, false, false, false, false, false, true , false
|false, false, false, false, false, true , false, false, false, false, false, false, true , false, false, false, false, false, true , false, false, false, false, false, true , false, true , false, false, false, false, false, false, false, false, false, false, true , false
|false, false, false, false, false, true , false, false, false, true , false, false, false, false, false, false, false, false, true , false, false, false, false, false, true , false, false, false, false, false, false, false, false, false, false, false, false, true , false
|false, false, false, false, false, false, false, false, false, true , false, false, true , false, false, false, true , true , false, false, false, true , false, false, true , false, false, false, false, false, false, false, false, false, false, false, false, false, true 
|false, false, false, true , false, false, false, false, false, false, false, false, true , false, false, false, true , true , false, false, false, true , false, true , false, false, false, false, false, false, false, false, false, false, false, false, false, true , true 
|false, false, false, true , false, false, false, false, false, false, false, false, true , false, false, false, true , true , false, false, false, true , false, true , false, false, false, false, false, false, false, false, false, false, false, false, false, true , true 
|false, true , true , false, false, false, false, false, false, false, false, false, false, false, false, false, false, false, false, false, false, false, false, false, false, false, true , false, false, false, false, false, false, false, false, false, false, true , false
|false, true , true , false, false, false, false, false, false, false, false, false, false, false, false, false, false, false, false, false, false, false, false, false, true , false, true , false, false, false, false, true , false, false, false, false, false, false, false
|false, false, false, false, false, false, false, false, false, false, false, false, false, false, false, false, false, false, false, false, false, false, false, false, true , false, true , false, false, false, false, true , false, false, false, false, false, false, false
|true , false, false, false, false, false, false, false, false, true , false, false, false, false, false, false, false, true , true , false, false, false, false, false, false, false, false, false, false, false, false, true , false, false, false, false, false, false, false
|true , false, false, false, false, false, false, true , false, true , false, false, false, false, false, false, false, true , true , false, false, false, false, false, false, false, false, false, false, false, true , false, false, false, false, false, false, false, false
|true , true , false, true , false, false, false, true , false, true , false, true , true , false, false, false, false, false, true , false, false, false, false, false, false, false, false, false, false, false, true , false, false, false, false, false, false, false, false
|false, true , false, true , false, false, false, false, false, false, false, true , true , false, true , false, false, false, false, false, false, false, true , true , false, false, false, true , false, false, false, false, false, false, false, false, false, false, false
|false, true , false, true , false, false, false, false, false, false, false, true , true , false, true , false, false, false, false, false, false, true , true , true , false, false, false, true , false, false, false, true , false, false, false, false, false, false, false
|false, false, false, false, false, false, false, false, false, false, false, false, false, false, false, false, false, false, true , false, false, true , true , true , false, false, false, false, false, false, false, true , false, false, false, false, false, false, false
|false, false, false, false, false, false, false, false, false, false, false, false, false, false, false, false, false, false, true , false, false, false, true , true , false, false, false, false, false, false, false, false, false, false, false, false, false, false, false
|true , false, false, false, false, false, false, false, false, false, true , false, false, false, true , false, false, true , false, false, false, false, false, false, false, false, false, false, false, true , false, false, false, true , false, false, true , false, false
|true , false, false, false, false, false, false, false, false, false, true , false, false, false, true , false, false, true , false, false, false, false, false, false, true , false, false, false, true , true , true , false, false, true , false, false, true , false, false
|false, false, false, false, false, false, false, false, false, false, false, true , false, false, true , false, false, true , false, false, false, false, false, false, true , false, false, false, true , true , true , false, false, true , false, false, true , false, false
|false, false, false, false, false, false, false, false, false, false, false, true , false, false, true , false, false, true , false, true , false, false, false, true , false, false, false, false, true , false, true , false, false, false, false, false, false, false, true 
|false, false, false, false, true , false, false, true , false, false, true , true , false, true , true , true , false, true , false, true , false, false, false, true , false, false, false, false, false, false, false, false, false, true , false, false, false, false, true 
|false, true , false, false, true , false, false, true , false, false, true , false, true , true , true , true , false, false, false, true , false, false, false, true , false, false, false, false, false, false, false, false, false, true , false, false, false, false, true 
|false, true , false, false, true , false, false, true , false, false, true , false, true , true , true , true , false, false, false, false, false, false, false, false, false, false, true , false, false, false, false, false, false, true , false, false, false, false, false
|false, true , false, false, false, false, false, false, false, false, false, false, false, false, false, false, false, false, false, false, false, false, false, false, false, false, true , false, false, true , false, false, false, false, false, false, true , false, false
|false, false, false, false, false, false, false, true , false, false, false, false, false, false, false, true , false, false, false, false, false, false, false, true , false, false, true , false, false, true , false, false, false, false, false, false, true , false, false
|false, false, true , false, true , false, false, true , false, false, false, false, false, true , false, true , false, false, false, false, false, false, false, true , false, true , false, false, false, true , false, false, false, false, false, false, true , true , false
|false, false, true , false, true , false, false, false, false, true , false, false, false, true , false, true , false, false, false, false, false, false, false, true , false, true , false, false, false, false, false, false, false, false, false, false, false, true , false
|false, false, true , false, true , true , false, false, false, true , false, true , true , false, false, true , false, false, false, false, true , false, false, false, true , true , false, false, false, false, false, false, false, false, false, false, true , true , false
|true , false, false, false, false, true , false, false, false, false, false, true , true , false, false, false, false, false, false, false, true , false, false, false, true , true , true , false, true , false, false, false, false, false, false, false, true , false, false
|true , false, false, false, false, false, false, false, false, false, false, false, false, false, false, true , false, false, false, false, true , false, false, false, false, true , true , false, true , false, false, false, false, false, false, false, true , false, false
|true , false, false, false, false, false, false, false, false, false, false, false, false, false, false, true , false, true , false, false, true , false, false, false, false, true , true , false, false, false, false, false, false, false, true , false, true , false, false
|true , false, false, false, false, false, false, false, false, false, false, false, false, false, false, true , false, true , false, false, true , false, false, false, false, true , true , false, false, false, false, false, false, false, true , false, true , false, false
|];
