% Synthetic instance, 100 course groups.
% Generated by scripts/academiapp/make_synthetic.py, calibrated on the
% AcademiAPP snapshot: intensity distribution, evening share, groups
% per teacher, availability density, room capacities and resource mix.
% seed=20260807 slack=1.6 availability=1.0

Recursos=[Coliseo, LabAlimentos, LabElectronica, Ninguno, PlantaAlimentos, SalaSistemas];
sede=29;
salones=29;
Sc=[62,62,62,62,62,62,62,62,62,62,62,62,62,62,62,62,62,62,62,62,62,62,62,62,62,62,62,62,62];
Sr=[Ninguno, Ninguno, Ninguno, Ninguno, Ninguno, Ninguno, Ninguno, Ninguno, Ninguno, Ninguno, Ninguno, Ninguno, Ninguno, SalaSistemas, SalaSistemas, SalaSistemas, SalaSistemas, SalaSistemas, SalaSistemas, PlantaAlimentos, PlantaAlimentos, LabAlimentos, LabAlimentos, LabAlimentos, LabElectronica, LabElectronica, LabElectronica, Coliseo, Coliseo];
N=96;
ini=1;
fin=100;
Asig=100;
Ar=[Ninguno,SalaSistemas,Ninguno,Ninguno,Ninguno,Ninguno,Ninguno,Ninguno,SalaSistemas,Ninguno,SalaSistemas,Ninguno,Ninguno,SalaSistemas,Ninguno,Ninguno,Ninguno,Ninguno,Ninguno,Ninguno,SalaSistemas,PlantaAlimentos,Ninguno,Ninguno,Ninguno,Ninguno,Ninguno,Ninguno,Ninguno,Ninguno,Ninguno,Ninguno,Ninguno,Ninguno,Ninguno,SalaSistemas,Ninguno,Ninguno,SalaSistemas,SalaSistemas,Ninguno,Ninguno,SalaSistemas,Ninguno,LabAlimentos,SalaSistemas,Ninguno,SalaSistemas,Ninguno,Ninguno,Ninguno,SalaSistemas,Ninguno,Ninguno,SalaSistemas,Ninguno,Ninguno,LabElectronica,SalaSistemas,Coliseo,Ninguno,Ninguno,Ninguno,Ninguno,Ninguno,LabAlimentos,Ninguno,SalaSistemas,LabElectronica,Ninguno,LabElectronica,SalaSistemas,Ninguno,Ninguno,Ninguno,Ninguno,Ninguno,SalaSistemas,Ninguno,Ninguno,Ninguno,Ninguno,Ninguno,Ninguno,Ninguno,Ninguno,Ninguno,Ninguno,Ninguno,SalaSistemas,SalaSistemas,Ninguno,SalaSistemas,SalaSistemas,SalaSistemas,LabElectronica,Ninguno,Ninguno,Ninguno,SalaSistemas];
Ae=[40,36,30,30,58,40,54,54,28,25,46,25,36,37,25,58,58,44,36,28,60,25,55,40,30,30,53,44,36,30,25,54,37,38,47,38,36,62,25,30,44,60,60,42,36,25,30,62,25,30,60,60,47,55,30,25,30,44,38,25,58,40,25,54,60,25,44,39,30,54,28,39,60,25,36,60,58,36,25,30,42,54,39,25,30,42,40,37,40,54,25,36,25,42,30,30,62,54,54,42];
