% Synthetic instance, 400 course groups.
% Generated by scripts/academiapp/make_synthetic.py, calibrated on the
% AcademiAPP snapshot: intensity distribution, evening share, groups
% per teacher, availability density, room capacities and resource mix.
% seed=20260807 slack=1.6 availability=1.0

diurno = {1, 2, 3, 4, 5, 6, 7, 8, 9, 10, 11, 12, 17, 18, 19, 20, 21, 22, 23, 24, 25, 26, 27, 28, 33, 34, 35, 36, 37, 38, 39, 40, 41, 42, 43, 44, 49, 50, 51, 52, 53, 54, 55, 56, 57, 58, 59, 60, 65, 66, 67, 68, 69, 70, 71, 72, 73, 74, 75, 76, 81, 82, 83, 84, 85, 86, 87, 88, 89, 90, 91, 92};
nocturno = {13, 14, 15, 16, 29, 30, 31, 32, 45, 46, 47, 48, 61, 62, 63, 64, 77, 78, 79, 80, 93, 94, 95, 96};
H = 96;
asignaturas = 400;
docentes = 157;

A=[|1, 1, 100001, 1, 0, 6
|1, 1, 100002, 1, 0, 3
|1, 1, 100003, 1, 0, 3
|1, 1, 100004, 1, 0, 3
|1, 1, 100005, 1, 0, 3
|1, 1, 100006, 1, 0, 3
|2, 1, 100007, 2, 0, 4
|2, 1, 100008, 2, 0, 3
|2, 1, 100009, 2, 0, 5
|2, 1, 100010, 2, 0, 3
|2, 1, 100011, 2, 0, 3
|2, 1, 100012, 2, 0, 3
|2, 1, 100013, 2, 0, 3
|3, 1, 100014, 3, 0, 3
|3, 1, 100015, 3, 0, 3
|3, 1, 100016, 3, 0, 3
|3, 1, 100017, 3, 0, 4
|3, 1, 100018, 3, 0, 4
|3, 1, 100019, 3, 0, 3
|3, 1, 100020, 3, 0, 3
|3, 1, 100021, 3, 0, 4
|4, 1, 100022, 4, 0, 4
|4, 1, 100023, 4, 0, 3
|4, 1, 100024, 4, 0, 4
|4, 1, 100025, 4, 0, 5
|4, 1, 100026, 4, 0, 3
|5, 1, 100027, 5, 0, 7
|5, 1, 100028, 5, 0, 3
|5, 1, 100029, 5, 0, 3
|5, 1, 100030, 5, 0, 3
|5, 1, 100031, 5, 0, 3
|5, 1, 100032, 5, 0, 2
|5, 1, 100033, 5, 0, 3
|6, 1, 100034, 6, 0, 3
|6, 1, 100035, 6, 0, 3
|6, 1, 100036, 6, 0, 3
|6, 1, 100037, 6, 0, 3
|6, 1, 100038, 6, 0, 3
|6, 1, 100039, 6, 0, 3
|6, 1, 100040, 6, 0, 4
|8, 1, 100041, 7, 0, 4
|8, 1, 100042, 7, 0, 4
|8, 1, 100043, 7, 0, 2
|8, 1, 100044, 7, 0, 3
|8, 1, 100045, 7, 0, 3
|8, 1, 100046, 7, 0, 2
|8, 1, 100047, 7, 0, 4
|9, 1, 100048, 8, 0, 3
|9, 1, 100049, 8, 0, 5
|9, 1, 100050, 8, 0, 3
|9, 1, 100051, 8, 0, 4
|9, 1, 100052, 8, 0, 3
|9, 1, 100053, 8, 0, 4
|10, 1, 100054, 9, 0, 6
|10, 1, 100055, 9, 0, 6
|10, 1, 100056, 9, 0, 3
|10, 1, 100057, 9, 0, 3
|10, 1, 100058, 9, 0, 6
|10, 1, 100059, 9, 0, 4
|10, 1, 100060, 9, 0, 3
|10, 1, 100061, 9, 0, 3
|10, 1, 100062, 9, 0, 4
|11, 1, 100063, 10, 0, 3
|11, 1, 100064, 10, 0, 4
|11, 1, 100065, 10, 0, 3
|11, 1, 100066, 10, 0, 3
|11, 1, 100067, 10, 0, 4
|11, 1, 100068, 10, 0, 3
|11, 1, 100069, 10, 0, 4
|11, 1, 100070, 10, 0, 4
|12, 1, 100071, 11, 0, 3
|12, 1, 100072, 11, 0, 3
|12, 1, 100073, 11, 0, 3
|12, 1, 100074, 11, 0, 3
|12, 1, 100075, 11, 0, 4
|12, 1, 100076, 11, 0, 3
|12, 1, 100077, 11, 0, 3
|13, 1, 100078, 12, 0, 4
|13, 1, 100079, 12, 0, 4
|13, 1, 100080, 12, 0, 3
|13, 1, 100081, 12, 0, 3
|13, 1, 100082, 12, 0, 3
|13, 1, 100083, 12, 0, 3
|13, 1, 100084, 12, 0, 4
|13, 1, 100085, 12, 0, 3
|13, 1, 100086, 12, 0, 4
|1, 2, 100087, 13, 0, 3
|1, 2, 100088, 13, 0, 4
|1, 2, 100089, 13, 0, 3
|1, 2, 100090, 13, 0, 4
|1, 2, 100091, 13, 0, 4
|2, 2, 100092, 14, 1, 3
|2, 2, 100093, 14, 1, 4
|2, 2, 100094, 14, 1, 4
|2, 2, 100095, 14, 1, 3
|3, 2, 100096, 15, 0, 3
|3, 2, 100097, 15, 0, 4
|4, 2, 100098, 16, 1, 3
|4, 2, 100099, 16, 1, 3
|4, 2, 100100, 16, 1, 3
|4, 2, 100101, 16, 1, 3
|4, 2, 100102, 16, 1, 3
|5, 2, 100103, 17, 0, 4
|5, 2, 100104, 17, 0, 2
|5, 2, 100105, 17, 0, 3
|5, 2, 100106, 17, 0, 4
|5, 2, 100107, 17, 0, 4
|5, 2, 100108, 17, 0, 3
|6, 2, 100109, 18, 0, 3
|6, 2, 100110, 18, 0, 3
|6, 2, 100111, 18, 0, 3
|6, 2, 100112, 18, 0, 3
|6, 2, 100113, 18, 0, 4
|6, 2, 100114, 18, 0, 4
|6, 2, 100115, 18, 0, 4
|8, 2, 100116, 19, 0, 3
|8, 2, 100117, 19, 0, 3
|8, 2, 100118, 19, 0, 3
|8, 2, 100119, 19, 0, 3
|9, 2, 100120, 20, 1, 3
|9, 2, 100121, 20, 1, 3
|9, 2, 100122, 20, 1, 4
|9, 2, 100123, 20, 1, 3
|9, 2, 100124, 20, 1, 3
|10, 2, 100125, 21, 0, 3
|10, 2, 100126, 21, 0, 3
|10, 2, 100127, 21, 0, 4
|10, 2, 100128, 21, 0, 3
|10, 2, 100129, 21, 0, 3
|10, 2, 100130, 21, 0, 3
|11, 2, 100131, 22, 1, 2
|11, 2, 100132, 22, 1, 4
|11, 2, 100133, 22, 1, 4
|11, 2, 100134, 22, 1, 3
|11, 2, 100135, 22, 1, 3
|12, 2, 100136, 23, 1, 4
|12, 2, 100137, 23, 1, 3
|12, 2, 100138, 23, 1, 3
|12, 2, 100139, 23, 1, 4
|13, 2, 100140, 24, 0, 3
|13, 2, 100141, 24, 0, 3
|13, 2, 100142, 24, 0, 4
|13, 2, 100143, 24, 0, 5
|13, 2, 100144, 24, 0, 3
|13, 2, 100145, 24, 0, 3
|1, 3, 100146, 25, 0, 3
|1, 3, 100147, 25, 0, 4
|1, 3, 100148, 25, 0, 3
|1, 3, 100149, 25, 0, 3
|1, 3, 100150, 25, 0, 4
|1, 3, 100151, 25, 0, 3
|2, 3, 100152, 26, 0, 6
|2, 3, 100153, 26, 0, 4
|2, 3, 100154, 26, 0, 4
|2, 3, 100155, 26, 0, 4
|2, 3, 100156, 26, 0, 4
|2, 3, 100157, 26, 0, 3
|2, 3, 100158, 26, 0, 4
|2, 3, 100159, 26, 0, 3
|2, 3, 100160, 26, 0, 4
|3, 3, 100161, 27, 0, 3
|3, 3, 100162, 27, 0, 3
|3, 3, 100163, 27, 0, 4
|3, 3, 100164, 27, 0, 4
|3, 3, 100165, 27, 0, 3
|3, 3, 100166, 27, 0, 5
|3, 3, 100167, 27, 0, 3
|3, 3, 100168, 27, 0, 3
|4, 3, 100169, 28, 1, 3
|4, 3, 100170, 28, 1, 3
|4, 3, 100171, 28, 1, 5
|4, 3, 100172, 28, 1, 3
|5, 3, 100173, 29, 1, 3
|5, 3, 100174, 29, 1, 3
|5, 3, 100175, 29, 1, 3
|5, 3, 100176, 29, 1, 3
|5, 3, 100177, 29, 1, 3
|6, 3, 100178, 30, 1, 3
|6, 3, 100179, 30, 1, 4
|6, 3, 100180, 30, 1, 3
|6, 3, 100181, 30, 1, 3
|6, 3, 100182, 30, 1, 3
|8, 3, 100183, 31, 0, 3
|8, 3, 100184, 31, 0, 4
|8, 3, 100185, 31, 0, 3
|8, 3, 100186, 31, 0, 3
|8, 3, 100187, 31, 0, 1
|8, 3, 100188, 31, 0, 3
|9, 3, 100189, 32, 1, 4
|10, 3, 100190, 33, 1, 3
|10, 3, 100191, 33, 1, 4
|10, 3, 100192, 33, 1, 4
|10, 3, 100193, 33, 1, 5
|11, 3, 100194, 34, 1, 4
|11, 3, 100195, 34, 1, 4
|11, 3, 100196, 34, 1, 3
|11, 3, 100197, 34, 1, 4
|12, 3, 100198, 35, 0, 4
|12, 3, 100199, 35, 0, 3
|12, 3, 100200, 35, 0, 5
|12, 3, 100201, 35, 0, 5
|12, 3, 100202, 35, 0, 4
|12, 3, 100203, 35, 0, 4
|12, 3, 100204, 35, 0, 3
|12, 3, 100205, 35, 0, 3
|12, 3, 100206, 35, 0, 3
|13, 3, 100207, 36, 1, 2
|13, 3, 100208, 36, 1, 4
|13, 3, 100209, 36, 1, 4
|13, 3, 100210, 36, 1, 3
|13, 3, 100211, 36, 1, 2
|1, 4, 100212, 37, 1, 5
|1, 4, 100213, 37, 1, 2
|1, 4, 100214, 37, 1, 3
|1, 4, 100215, 37, 1, 3
|2, 4, 100216, 38, 0, 4
|2, 4, 100217, 38, 0, 3
|2, 4, 100218, 38, 0, 3
|2, 4, 100219, 38, 0, 3
|2, 4, 100220, 38, 0, 4
|2, 4, 100221, 38, 0, 4
|2, 4, 100222, 38, 0, 4
|3, 4, 100223, 39, 0, 3
|3, 4, 100224, 39, 0, 4
|3, 4, 100225, 39, 0, 4
|3, 4, 100226, 39, 0, 3
|3, 4, 100227, 39, 0, 4
|3, 4, 100228, 39, 0, 5
|3, 4, 100229, 39, 0, 3
|4, 4, 100230, 40, 0, 2
|4, 4, 100231, 40, 0, 5
|4, 4, 100232, 40, 0, 3
|4, 4, 100233, 40, 0, 4
|4, 4, 100234, 40, 0, 3
|4, 4, 100235, 40, 0, 3
|5, 4, 100236, 41, 0, 3
|5, 4, 100237, 41, 0, 6
|5, 4, 100238, 41, 0, 3
|5, 4, 100239, 41, 0, 4
|5, 4, 100240, 41, 0, 4
|5, 4, 100241, 41, 0, 4
|5, 4, 100242, 41, 0, 4
|5, 4, 100243, 41, 0, 4
|6, 4, 100244, 42, 0, 3
|6, 4, 100245, 42, 0, 3
|6, 4, 100246, 42, 0, 3
|6, 4, 100247, 42, 0, 3
|6, 4, 100248, 42, 0, 4
|6, 4, 100249, 42, 0, 3
|8, 4, 100250, 43, 1, 3
|8, 4, 100251, 43, 1, 5
|8, 4, 100252, 43, 1, 4
|8, 4, 100253, 43, 1, 4
|9, 4, 100254, 44, 1, 2
|9, 4, 100255, 44, 1, 4
|9, 4, 100256, 44, 1, 4
|9, 4, 100257, 44, 1, 4
|10, 4, 100258, 45, 1, 5
|10, 4, 100259, 45, 1, 5
|10, 4, 100260, 45, 1, 3
|10, 4, 100261, 45, 1, 2
|11, 4, 100262, 46, 0, 3
|11, 4, 100263, 46, 0, 4
|11, 4, 100264, 46, 0, 4
|11, 4, 100265, 46, 0, 3
|11, 4, 100266, 46, 0, 4
|11, 4, 100267, 46, 0, 4
|12, 4, 100268, 47, 0, 3
|12, 4, 100269, 47, 0, 3
|12, 4, 100270, 47, 0, 3
|12, 4, 100271, 47, 0, 4
|12, 4, 100272, 47, 0, 3
|13, 4, 100273, 48, 1, 4
|13, 4, 100274, 48, 1, 3
|13, 4, 100275, 48, 1, 3
|13, 4, 100276, 48, 1, 3
|13, 4, 100277, 48, 1, 2
|1, 5, 100278, 49, 0, 3
|1, 5, 100279, 49, 0, 7
|1, 5, 100280, 49, 0, 4
|1, 5, 100281, 49, 0, 4
|1, 5, 100282, 49, 0, 3
|1, 5, 100283, 49, 0, 4
|1, 5, 100284, 49, 0, 3
|1, 5, 100285, 49, 0, 3
|1, 5, 100286, 49, 0, 4
|1, 5, 100287, 49, 0, 3
|1, 5, 100288, 49, 0, 3
|2, 5, 100289, 50, 0, 3
|2, 5, 100290, 50, 0, 4
|2, 5, 100291, 50, 0, 4
|2, 5, 100292, 50, 0, 3
|2, 5, 100293, 50, 0, 3
|3, 5, 100294, 51, 0, 4
|3, 5, 100295, 51, 0, 2
|3, 5, 100296, 51, 0, 3
|3, 5, 100297, 51, 0, 5
|3, 5, 100298, 51, 0, 3
|3, 5, 100299, 51, 0, 4
|4, 5, 100300, 52, 0, 3
|4, 5, 100301, 52, 0, 4
|4, 5, 100302, 52, 0, 4
|4, 5, 100303, 52, 0, 3
|4, 5, 100304, 52, 0, 3
|4, 5, 100305, 52, 0, 6
|4, 5, 100306, 52, 0, 6
|5, 5, 100307, 53, 0, 4
|5, 5, 100308, 53, 0, 6
|5, 5, 100309, 53, 0, 3
|5, 5, 100310, 53, 0, 4
|5, 5, 100311, 53, 0, 2
|5, 5, 100312, 53, 0, 3
|6, 5, 100313, 54, 1, 3
|6, 5, 100314, 54, 1, 3
|6, 5, 100315, 54, 1, 3
|6, 5, 100316, 54, 1, 4
|6, 5, 100317, 54, 1, 3
|8, 5, 100318, 55, 0, 4
|8, 5, 100319, 55, 0, 3
|8, 5, 100320, 55, 0, 3
|8, 5, 100321, 55, 0, 3
|8, 5, 100322, 55, 0, 4
|8, 5, 100323, 55, 0, 3
|9, 5, 100324, 56, 0, 7
|9, 5, 100325, 56, 0, 4
|9, 5, 100326, 56, 0, 5
|9, 5, 100327, 56, 0, 4
|9, 5, 100328, 56, 0, 4
|9, 5, 100329, 56, 0, 3
|9, 5, 100330, 56, 0, 6
|9, 5, 100331, 56, 0, 3
|10, 5, 100332, 57, 0, 1
|10, 5, 100333, 57, 0, 3
|10, 5, 100334, 57, 0, 4
|10, 5, 100335, 57, 0, 4
|11, 5, 100336, 58, 0, 3
|11, 5, 100337, 58, 0, 4
|11, 5, 100338, 58, 0, 4
|11, 5, 100339, 58, 0, 3
|11, 5, 100340, 58, 0, 4
|12, 5, 100341, 59, 0, 4
|12, 5, 100342, 59, 0, 2
|12, 5, 100343, 59, 0, 4
|12, 5, 100344, 59, 0, 3
|12, 5, 100345, 59, 0, 3
|13, 5, 100346, 60, 0, 3
|13, 5, 100347, 60, 0, 3
|1, 6, 100348, 61, 0, 4
|2, 6, 100349, 62, 0, 4
|2, 6, 100350, 62, 0, 4
|2, 6, 100351, 62, 0, 3
|2, 6, 100352, 62, 0, 4
|2, 6, 100353, 62, 0, 6
|2, 6, 100354, 62, 0, 3
|2, 6, 100355, 62, 0, 4
|2, 6, 100356, 62, 0, 4
|3, 6, 100357, 63, 0, 3
|3, 6, 100358, 63, 0, 4
|3, 6, 100359, 63, 0, 4
|3, 6, 100360, 63, 0, 4
|3, 6, 100361, 63, 0, 5
|4, 6, 100362, 64, 0, 5
|5, 6, 100363, 65, 0, 3
|5, 6, 100364, 65, 0, 4
|5, 6, 100365, 65, 0, 5
|5, 6, 100366, 65, 0, 3
|5, 6, 100367, 65, 0, 4
|5, 6, 100368, 65, 0, 2
|5, 6, 100369, 65, 0, 3
|6, 6, 100370, 66, 1, 3
|6, 6, 100371, 66, 1, 4
|6, 6, 100372, 66, 1, 3
|6, 6, 100373, 66, 1, 3
|8, 6, 100374, 67, 0, 3
|8, 6, 100375, 67, 0, 3
|8, 6, 100376, 67, 0, 3
|8, 6, 100377, 67, 0, 3
|9, 6, 100378, 68, 1, 3
|9, 6, 100379, 68, 1, 3
|9, 6, 100380, 68, 1, 4
|9, 6, 100381, 68, 1, 3
|10, 6, 100382, 69, 0, 3
|10, 6, 100383, 69, 0, 3
|10, 6, 100384, 69, 0, 4
|10, 6, 100385, 69, 0, 4
|10, 6, 100386, 69, 0, 3
|10, 6, 100387, 69, 0, 3
|11, 6, 100388, 70, 0, 3
|11, 6, 100389, 70, 0, 5
|11, 6, 100390, 70, 0, 3
|11, 6, 100391, 70, 0, 5
|11, 6, 100392, 70, 0, 4
|12, 6, 100393, 71, 1, 3
|12, 6, 100394, 71, 1, 2
|12, 6, 100395, 71, 1, 3
|12, 6, 100396, 71, 1, 3
|12, 6, 100397, 71, 1, 3
|13, 6, 100398, 72, 1, 4
|13, 6, 100399, 72, 1, 3
|13, 6, 100400, 72, 1, 3
|];
Da=[{1, 158, 315},
{2, 159, 316},
{3, 160, 317},
{4, 161, 318},
{5, 162, 319},
{6, 163, 320},
{7, 164, 321},
{8, 165, 322},
{9, 166, 323},
{10, 167, 324},
{11, 168, 325},
{12, 169, 326},
{13, 170, 327},
{14, 171, 328},
{15, 172, 329},
{16, 173, 330},
{17, 174, 331},
{18, 175, 332},
{19, 176, 333},
{20, 177, 334},
{21, 178, 335},
{22, 179, 336},
{23, 180, 337},
{24, 181, 338},
{25, 182, 339},
{26, 183, 340},
{27, 184, 341},
{28, 185, 342},
{29, 186, 343},
{30, 187, 344},
{31, 188, 345},
{32, 189, 346},
{33, 190, 347},
{34, 191, 348},
{35, 192, 349},
{36, 193, 350},
{37, 194, 351},
{38, 195, 352},
{39, 196, 353},
{40, 197, 354},
{41, 198, 355},
{42, 199, 356},
{43, 200, 357},
{44, 201, 358},
{45, 202, 359},
{46, 203, 360},
{47, 204, 361},
{48, 205, 362},
{49, 206, 363},
{50, 207, 364},
{51, 208, 365},
{52, 209, 366},
{53, 210, 367},
{54, 211, 368},
{55, 212, 369},
{56, 213, 370},
{57, 214, 371},
{58, 215, 372},
{59, 216, 373},
{60, 217, 374},
{61, 218, 375},
{62, 219, 376},
{63, 220, 377},
{64, 221, 378},
{65, 222, 379},
{66, 223, 380},
{67, 224, 381},
{68, 225, 382},
{69, 226, 383},
{70, 227, 384},
{71, 228, 385},
{72, 229, 386},
{73, 230, 387},
{74, 231, 388},
{75, 232, 389},
{76, 233, 390},
{77, 234, 391},
{78, 235, 392},
{79, 236, 393},
{80, 237, 394},
{81, 238, 395},
{82, 239, 396},
{83, 240, 397},
{84, 241, 398},
{85, 242, 399},
{86, 243, 400},
{87, 244},
{88, 245},
{89, 246},
{90, 247},
{91, 248},
{92, 249},
{93, 250},
{94, 251},
{95, 252},
{96, 253},
{97, 254},
{98, 255},
{99, 256},
{100, 257},
{101, 258},
{102, 259},
{103, 260},
{104, 261},
{105, 262},
{106, 263},
{107, 264},
{108, 265},
{109, 266},
{110, 267},
{111, 268},
{112, 269},
{113, 270},
{114, 271},
{115, 272},
{116, 273},
{117, 274},
{118, 275},
{119, 276},
{120, 277},
{121, 278},
{122, 279},
{123, 280},
{124, 281},
{125, 282},
{126, 283},
{127, 284},
{128, 285},
{129, 286},
{130, 287},
{131, 288},
{132, 289},
{133, 290},
{134, 291},
{135, 292},
{136, 293},
{137, 294},
{138, 295},
{139, 296},
{140, 297},
{141, 298},
{142, 299},
{143, 300},
{144, 301},
{145, 302},
{146, 303},
{147, 304},
{148, 305},
{149, 306},
{150, 307},
{151, 308},
{152, 309},
{153, 310},
{154, 311},
{155, 312},
{156, 313},
{157, 314}
];
Ad=[1, 2, 3, 4, 5, 6, 7, 8, 9, 10, 11, 12, 13, 14, 15, 16, 17, 18, 19, 20, 21, 22, 23, 24, 25, 26, 27, 28, 29, 30, 31, 32, 33, 34, 35, 36, 37, 38, 39, 40, 41, 42, 43, 44, 45, 46, 47, 48, 49, 50, 51, 52, 53, 54, 55, 56, 57, 58, 59, 60, 61, 62, 63, 64, 65, 66, 67, 68, 69, 70, 71, 72, 73, 74, 75, 76, 77, 78, 79, 80, 81, 82, 83, 84, 85, 86, 87, 88, 89, 90, 91, 92, 93, 94, 95, 96, 97, 98, 99, 100, 101, 102, 103, 104, 105, 106, 107, 108, 109, 110, 111, 112, 113, 114, 115, 116, 117, 118, 119, 120, 121, 122, 123, 124, 125, 126, 127, 128, 129, 130, 131, 132, 133, 134, 135, 136, 137, 138, 139, 140, 141, 142, 143, 144, 145, 146, 147, 148, 149, 150, 151, 152, 153, 154, 155, 156, 157, 1, 2, 3, 4, 5, 6, 7, 8, 9, 10, 11, 12, 13, 14, 15, 16, 17, 18, 19, 20, 21, 22, 23, 24, 25, 26, 27, 28, 29, 30, 31, 32, 33, 34, 35, 36, 37, 38, 39, 40, 41, 42, 43, 44, 45, 46, 47, 48, 49, 50, 51, 52, 53, 54, 55, 56, 57, 58, 59, 60, 61, 62, 63, 64, 65, 66, 67, 68, 69, 70, 71, 72, 73, 74, 75, 76, 77, 78, 79, 80, 81, 82, 83, 84, 85, 86, 87, 88, 89, 90, 91, 92, 93, 94, 95, 96, 97, 98, 99, 100, 101, 102, 103, 104, 105, 106, 107, 108, 109, 110, 111, 112, 113, 114, 115, 116, 117, 118, 119, 120, 121, 122, 123, 124, 125, 126, 127, 128, 129, 130, 131, 132, 133, 134, 135, 136, 137, 138, 139, 140, 141, 142, 143, 144, 145, 146, 147, 148, 149, 150, 151, 152, 153, 154, 155, 156, 157, 1, 2, 3, 4, 5, 6, 7, 8, 9, 10, 11, 12, 13, 14, 15, 16, 17, 18, 19, 20, 21, 22, 23, 24, 25, 26, 27, 28, 29, 30, 31, 32, 33, 34, 35, 36, 37, 38, 39, 40, 41, 42, 43, 44, 45, 46, 47, 48, 49, 50, 51, 52, 53, 54, 55, 56, 57, 58, 59, 60, 61, 62, 63, 64, 65, 66, 67, 68, 69, 70, 71, 72, 73, 74, 75, 76, 77, 78, 79, 80, 81, 82, 83, 84, 85, 86];
D=[|false, false, false, false, false, false, false, false, false, false, false, false, true , false, false, false, false, false, false, false, false, false, false, false, false, true , false, false, false, true , false, true , true , false, false, false, false, false, false, false, false, false, false, false, false, false, false, true , false, false, false, false, true , false, false, false, false, false, false, true , false, false, false, false, false, true , false, false, false, true , false, false, true , true , false, false, false, false, true , false, true , false, false, false, false, false, false, false, false, true , false, false, false, true , false, true , false, false, false, false, false, true , true , false, false, false, false, false, false, false, false, false, false, false, false, false, true , false, false, false, true , false, false, false, true , false, false, false, false, false, false, false, false, true , true , false, true , true , false, false, false, false, false, false, true , true , true , true , false, false, false, false, false, true , true , false, true 
|false, false, false, false, false, false, true , false, false, false, false, false, true , true , false, false, false, false, false, true , false, false, false, false, false, true , false, false, false, true , false, true , true , false, false, false, false, false, false, false, true , false, false, false, true , true , false, true , false, false, false, false, true , false, false, true , false, false, false, true , false, false, false, false, false, true , false, false, false, true , false, false, true , true , false, false, false, false, true , false, true , false, false, false, false, false, false, false, false, true , false, false, false, true , false, true , false, false, false, false, true , true , true , false, false, false, false, false, false, false, true , false, false, false, false, false, true , false, false, false, true , false, false, false, true , false, false, false, false, true , false, false, false, true , true , false, true , true , false, false, false, false, false, false, true , true , true , true , true , false, false, false, false, true , true , false, true 
|true , false, false, false, false, false, true , false, false, false, false, false, true , true , false, false, false, false, false, true , true , false, false, false, false, true , false, false, false, true , false, true , false, true , false, false, false, false, false, false, true , false, false, false, true , true , false, true , false, true , false, false, false, false, false, true , false, false, false, true , false, false, false, false, false, true , false, true , false, false, false, false, true , true , false, false, false, false, true , false, false, false, false, false, false, true , true , false, false, true , false, false, false, true , false, false, false, false, false, false, true , true , true , false, false, false, false, false, false, false, true , false, false, false, false, false, true , false, false, false, true , false, false, false, true , false, false, false, false, true , false, false, false, true , false, false, true , false, false, false, false, false, false, false, false, false, false, true , true , false, false, false, false, true , true , false, true 
|true , false, false, false, false, false, true , false, false, false, false, false, false, true , false, false, true , false, false, true , true , true , false, false, false, false, false, false, true , false, false, false, false, true , false, false, false, false, false, true , false, true , false, false, true , false, false, false, false, true , false, false, false, false, false, true , true , false, true , false, false, false, false, false, false, false, false, true , false, false, false, false, true , false, false, false, false, false, false, false, false, false, false, false, false, true , true , false, false, false, false, false, true , false, false, false, false, false, false, false, true , true , false, false, true , false, false, false, false, false, true , false, false, false, false, false, false, false, false, false, false, false, true , false, false, false, false, false, false, true , false, true , false, true , true , false, true , false, false, false, false, false, false, false, false, false, false, true , true , false, false, false, false, false, false, false, false
|true , true , false, false, false, false, false, false, false, false, false, false, false, false, false, false, true , false, false, false, false, true , false, false, false, false, false, false, true , false, false, false, false, false, false, false, false, false, false, true , false, true , false, true , false, false, true , true , false, false, false, false, false, false, false, false, true , false, true , false, false, false, true , false, false, false, false, false, false, false, false, false, true , false, false, false, false, false, false, false, false, false, false, false, false, true , true , false, false, false, false, false, true , true , false, true , false, false, false, false, false, true , false, false, true , false, false, false, false, false, true , false, false, false, false, false, true , false, false, false, false, false, true , true , false, true , false, false, false, false, false, true , false, false, true , false, false, false, true , false, false, false, false, false, false, false, false, false, false, false, false, false, false, false, false, false, false
|false, true , false, true , false, false, false, false, false, false, false, false, false, false, false, true , true , false, false, false, false, true , false, false, false, false, true , false, true , false, false, false, false, false, false, false, false, false, false, false, false, true , false, true , false, true , true , true , false, false, false, false, false, false, false, false, true , false, true , false, false, false, true , false, false, false, false, false, false, false, true , false, false, false, false, false, false, false, false, false, false, false, false, true , true , true , false, false, false, false, false, false, true , true , false, true , false, false, false, false, false, true , false, false, true , false, false, false, false, false, true , false, false, false, false, false, true , false, false, false, false, false, true , true , false, true , false, false, false, false, false, true , false, false, true , false, false, false, true , false, false, false, false, false, false, false, false, false, false, false, false, true , false, false, false, false, false
|false, true , false, true , false, false, false, false, false, true , false, true , false, false, false, true , false, false, false, false, false, false, false, false, false, false, true , false, true , false, false, true , false, false, false, false, false, false, false, false, false, true , false, true , false, true , true , true , false, false, false, false, false, false, false, false, false, false, false, false, false, false, true , false, false, false, true , false, false, false, true , false, false, true , false, false, false, false, false, false, false, false, false, true , true , false, false, false, false, false, false, false, false, true , false, true , false, false, false, false, false, true , false, false, false, false, false, false, false, false, false, false, false, false, false, false, true , false, false, false, false, true , false, false, false, true , false, false, false, false, false, false, false, false, false, false, false, false, true , false, false, false, false, false, false, false, true , false, false, false, false, true , false, false, false, false, false
|false, true , false, false, true , true , false, false, false, true , false, true , false, false, false, true , false, false, false, false, false, false, false, false, true , false, true , false, false, false, false, true , false, false, false, false, false, false, false, false, false, false, false, false, false, false, false, false, false, false, false, false, true , false, false, false, false, true , false, false, false, false, false, false, false, false, true , false, false, false, false, false, false, true , false, false, false, false, false, false, false, false, true , false, false, false, false, false, false, false, false, false, false, false, false, false, true , false, false, false, false, false, false, false, false, false, true , false, false, false, true , false, false, false, false, false, false, false, false, false, false, true , false, false, false, false, false, false, false, false, false, false, false, false, false, false, false, false, true , true , false, false, false, false, false, false, true , false, false, true , false, true , false, false, false, false, false
|false, true , true , false, true , true , false, false, false, true , false, false, false, false, false, false, false, false, false, false, false, false, false, false, true , false, true , true , true , false, false, true , false, false, false, false, true , false, true , false, false, false, true , false, false, false, false, false, false, false, false, true , true , false, false, false, false, true , false, false, false, false, false, false, false, false, false, false, false, false, true , false, false, true , false, false, false, false, false, false, false, false, true , false, false, false, false, false, false, false, true , false, false, false, false, false, true , false, false, false, false, false, false, false, false, false, true , false, false, true , true , false, false, true , false, false, false, false, false, true , false, false, false, false, false, false, true , false, false, true , false, false, false, false, false, false, false, false, true , true , false, false, false, false, false, false, false, false, false, true , false, false, false, false, false, false, false
|false, true , true , false, true , false, false, false, false, false, true , false, false, true , false, false, false, false, false, true , false, false, false, false, true , true , false, true , true , false, false, false, false, true , false, false, true , false, true , false, false, false, true , false, false, false, true , false, false, false, true , true , false, false, false, false, true , true , false, false, true , false, false, false, false, true , false, false, false, false, true , false, false, false, false, false, true , false, true , false, false, false, false, false, false, false, false, false, false, false, true , false, false, false, false, false, false, false, false, false, false, false, false, false, false, false, true , false, false, true , true , false, false, true , false, true , false, false, false, true , false, false, false, true , false, false, true , false, true , true , false, false, false, false, false, false, false, false, true , false, false, false, false, false, false, false, false, false, false, false, false, false, false, false, false, false, false
|true , false, true , false, false, false, false, false, false, false, true , false, false, true , false, false, false, false, false, true , false, false, false, true , false, true , false, true , true , false, false, false, false, true , false, false, true , false, true , false, false, true , true , false, false, false, true , false, false, false, true , true , false, false, false, false, true , false, false, false, true , false, false, false, false, true , false, false, false, true , false, false, false, false, false, false, true , false, true , false, false, false, false, false, false, false, false, false, false, false, false, false, false, false, false, false, false, false, false, false, false, false, false, false, false, false, false, false, false, false, false, false, false, false, false, true , false, false, false, true , false, false, false, true , false, false, false, false, true , true , false, false, false, false, false, false, false, false, false, false, false, false, false, false, false, false, false, false, false, false, false, false, false, false, false, false, false
|true , false, true , false, false, false, false, false, false, true , false, false, false, true , false, true , false, false, false, true , false, false, false, true , false, true , true , false, false, false, false, false, true , true , false, false, false, false, false, false, false, true , false, false, false, false, true , false, false, false, false, false, false, false, false, false, true , false, false, false, true , false, false, false, false, true , false, false, false, true , false, false, false, false, false, false, true , false, false, false, false, false, false, false, false, false, false, true , false, false, true , false, false, false, false, false, false, false, false, false, false, false, false, false, false, false, false, false, true , false, true , false, false, false, false, true , false, false, false, false, false, false, false, true , false, false, false, false, false, false, false, false, false, false, false, false, false, false, false, false, false, false, true , false, false, false, false, false, false, false, false, false, true , false, false, true , true 
|false, false, true , false, false, false, false, false, false, true , false, false, false, false, false, true , true , false, false, true , false, false, false, true , false, false, true , false, false, false, false, false, true , false, true , false, false, true , false, false, true , false, true , false, false, false, true , false, false, false, false, false, false, false, false, true , true , false, false, false, false, false, false, false, false, false, false, false, false, false, false, true , false, false, false, false, true , false, false, true , false, false, false, true , false, false, false, true , false, false, true , false, true , false, false, true , false, false, false, false, true , false, false, false, true , false, true , false, true , true , true , false, false, false, false, false, true , false, false, false, false, false, false, false, false, false, false, false, false, false, false, false, false, false, false, false, false, false, false, false, true , true , true , false, false, false, false, false, false, false, false, false, true , false, false, true , true 
|true , false, true , false, false, false, false, false, false, true , false, false, true , false, false, true , true , false, false, true , false, false, false, true , false, false, true , false, false, false, false, false, true , false, true , false, false, true , false, false, true , false, true , false, false, false, true , false, false, false, false, false, true , false, false, true , true , false, false, false, false, false, false, true , false, false, false, false, false, false, false, true , false, false, false, false, false, false, true , true , false, false, false, true , false, false, false, false, false, false, false, false, true , false, false, true , false, true , true , false, true , false, false, false, true , false, true , false, false, true , true , false, false, false, false, false, true , false, false, false, false, false, false, false, false, false, false, false, false, false, false, false, false, true , false, false, false, false, false, false, true , true , true , false, false, false, false, false, false, false, false, false, true , false, false, true , false
|true , false, false, false, false, false, false, false, false, false, false, false, true , false, false, false, true , false, false, true , false, false, false, true , false, false, true , false, false, false, false, true , false, false, false, true , true , false, false, false, true , false, true , false, false, false, true , false, false, false, false, false, true , false, false, true , true , false, false, false, false, false, false, true , false, false, false, false, false, false, false, true , false, false, false, false, false, false, true , true , false, false, false, false, false, false, false, false, false, false, false, false, false, false, false, false, false, true , true , false, false, true , false, false, true , false, true , false, false, true , false, false, false, false, false, false, true , false, false, false, false, true , false, false, false, false, false, false, false, false, false, false, false, true , false, true , false, false, false, false, true , true , false, false, false, false, false, false, false, false, false, false, false, false, false, false, false
|true , false, false, false, false, false, false, false, false, false, false, false, true , false, false, false, true , false, false, true , false, false, false, false, false, false, true , false, false, false, false, true , false, false, false, true , true , false, false, false, true , false, true , false, false, false, true , false, false, false, false, false, true , false, false, false, false, false, false, false, false, false, false, true , false, false, false, false, false, false, false, true , false, false, false, false, false, false, true , true , false, false, false, false, false, false, false, false, false, false, false, false, false, false, false, false, false, false, true , false, false, true , false, false, true , false, true , false, false, true , false, false, false, false, false, false, false, false, false, false, false, true , false, false, false, false, false, false, false, false, false, false, false, true , false, true , false, false, false, false, true , true , false, false, false, false, false, false, false, false, false, false, false, false, false, false, false
|false, false, false, false, false, false, false, false, false, false, true , false, false, false, false, false, true , false, false, false, false, false, false, false, false, false, false, false, false, false, false, true , false, true , false, true , false, false, false, false, false, false, false, false, false, false, false, false, false, false, false, true , false, false, false, true , false, true , false, false, false, false, false, false, false, false, true , false, false, false, false, false, true , false, false, false, false, true , false, false, false, false, true , false, false, false, true , false, false, false, false, true , false, true , true , false, false, true , false, true , false, false, false, false, false, false, false, false, false, false, false, false, true , true , false, false, false, true , true , true , false, false, false, false, false, false, false, false, false, false, false, false, false, true , false, true , true , true , false, true , false, false, false, true , false, false, false, false, false, true , false, false, false, false, false, true , false
|false, true , false, true , false, false, false, false, false, false, true , false, false, false, false, false, true , false, true , false, false, false, false, false, false, false, false, false, false, false, false, true , false, true , false, true , false, false, false, false, false, false, false, false, false, false, true , false, false, false, false, true , false, false, false, true , false, true , false, false, false, false, false, true , false, false, true , false, false, true , false, false, true , false, false, false, false, true , false, false, false, false, true , false, false, false, true , false, true , false, false, true , false, true , true , false, false, true , false, true , false, false, false, false, false, true , false, false, false, false, false, true , true , true , false, false, false, true , true , true , false, false, true , false, false, false, false, false, false, false, true , false, false, true , false, true , true , true , false, true , false, false, true , true , false, false, false, false, false, true , false, false, false, false, false, true , true 
|false, true , false, true , false, false, false, false, false, false, true , true , false, false, false, false, false, false, true , false, false, false, false, false, false, false, false, false, false, false, false, true , false, true , false, false, false, false, false, false, false, true , false, false, false, false, true , false, false, false, false, true , false, false, false, true , false, true , false, false, true , false, false, true , false, false, true , false, false, true , false, false, false, false, true , false, false, false, false, false, false, false, true , false, false, false, true , true , true , false, false, true , false, true , true , false, false, true , false, true , false, false, false, false, false, true , false, false, false, false, false, true , true , true , false, false, false, true , true , true , false, false, true , false, false, false, false, false, false, false, true , false, false, false, false, true , false, true , false, true , false, true , true , false, false, false, false, false, false, true , false, false, false, false, false, true , true 
|false, true , false, true , false, true , false, false, false, false, false, true , false, false, false, false, false, false, true , false, false, false, false, false, false, false, false, false, false, false, false, true , false, true , false, false, true , true , false, false, false, true , false, false, false, false, false, false, false, false, false, false, false, false, false, false, false, true , false, false, true , false, false, false, false, false, false, false, false, false, false, false, false, false, true , false, false, false, false, false, false, false, false, false, false, false, true , true , true , false, false, false, false, false, false, true , true , false, false, false, false, false, false, false, false, false, false, true , false, false, false, true , false, false, false, false, false, true , false, false, false, false, true , false, false, false, true , false, false, false, true , false, true , false, false, true , false, false, false, false, false, true , true , false, false, false, false, false, false, false, false, false, false, false, false, false, true 
|false, false, false, true , false, true , false, false, false, false, false, true , false, true , false, false, false, false, false, false, false, false, false, false, false, false, false, false, false, true , false, false, false, false, false, false, true , true , false, false, false, true , false, false, false, false, false, false, false, false, false, false, false, false, false, false, false, false, false, false, true , false, false, false, false, false, false, false, false, false, false, false, false, false, true , false, false, false, false, false, false, false, false, false, false, false, true , false, false, false, false, false, false, false, false, true , true , false, false, false, false, false, false, false, false, false, false, true , false, false, false, false, false, true , false, false, false, true , false, false, false, false, false, false, false, false, true , false, false, false, false, false, true , false, false, false, false, false, false, false, false, true , true , false, false, false, true , false, false, false, false, false, false, false, false, false, false
|false, false, false, true , false, true , false, true , false, false, false, false, false, true , false, false, false, false, false, false, false, false, false, false, false, false, false, false, false, true , false, false, false, false, false, false, true , true , false, true , false, false, false, false, false, true , false, false, true , false, false, false, false, true , false, false, false, false, false, false, false, true , false, false, false, false, false, false, false, false, false, false, false, false, false, false, false, false, false, false, false, false, false, false, false, false, true , false, false, false, false, false, false, false, false, true , true , false, false, false, false, false, false, false, false, false, false, true , false, false, false, false, false, true , false, false, false, true , false, false, false, false, false, false, false, false, false, false, false, false, false, false, true , false, false, false, false, false, false, false, false, true , true , false, false, true , true , false, false, false, false, false, false, false, false, false, false
|true , false, false, false, true , false, false, true , false, false, false, false, false, false, false, false, false, false, false, false, true , false, false, false, false, false, false, true , false, true , false, false, false, false, false, false, false, false, false, true , false, false, false, false, false, true , false, false, true , false, false, false, false, true , false, false, false, false, false, false, false, true , false, false, false, false, false, true , false, true , false, false, false, false, false, false, false, false, false, false, false, false, false, false, false, false, false, false, false, false, false, false, false, false, false, false, true , false, false, false, false, false, false, false, false, false, false, false, false, false, false, false, false, true , false, false, false, false, false, false, false, false, false, false, false, false, false, false, false, false, false, false, false, false, false, false, false, true , false, false, false, false, true , false, false, true , true , false, false, false, false, false, false, false, false, false, false
|true , false, false, true , true , false, false, true , false, false, false, false, false, false, false, false, false, false, false, false, true , false, false, false, false, false, false, true , false, false, false, false, true , false, false, true , false, false, false, true , true , false, true , false, false, false, false, false, true , false, false, false, false, true , false, false, false, false, false, false, true , true , false, false, false, false, false, true , false, true , false, false, false, false, false, false, false, false, false, false, false, false, true , false, false, false, false, false, false, false, true , false, false, false, false, false, false, false, false, false, false, false, false, false, false, false, false, false, false, false, false, false, false, false, false, false, true , false, false, false, true , false, false, false, false, false, false, false, false, true , false, false, false, true , false, false, false, true , false, false, false, false, false, false, false, true , false, false, false, false, false, false, false, false, false, false, false
|true , false, false, true , true , false, false, false, false, false, false, false, false, false, false, true , false, false, false, true , true , false, false, false, false, true , false, true , false, false, false, true , true , false, false, true , false, false, false, false, true , false, true , false, false, false, false, false, true , false, false, false, false, true , false, false, false, false, false, false, true , false, true , false, false, true , false, true , true , false, false, false, false, false, false, false, false, false, false, false, false, true , true , false, false, false, false, false, false, false, true , false, false, false, false, true , false, false, true , false, false, false, false, false, false, false, false, false, true , false, false, true , false, false, false, true , true , false, false, false, true , false, false, false, false, false, false, false, false, true , false, false, false, true , false, false, false, false, false, false, false, false, false, false, false, false, false, true , false, false, false, false, false, false, false, false, false
|false, true , false, true , false, false, false, false, true , false, true , false, false, false, false, true , false, false, false, true , true , false, true , false, false, true , false, false, true , false, false, true , true , false, false, true , false, false, false, false, false, false, true , false, false, false, false, true , true , false, false, true , false, true , true , false, false, false, false, false, true , false, true , false, false, true , false, false, true , false, false, false, false, false, false, false, false, false, false, false, false, true , true , false, false, false, false, false, true , false, false, false, false, false, false, true , false, false, true , false, false, false, true , false, false, false, false, false, true , false, false, true , false, false, false, true , true , false, true , false, true , false, false, false, false, false, false, false, false, true , false, false, false, true , false, false, false, false, false, true , false, false, false, false, false, false, false, true , false, false, false, false, false, false, false, false, false
|false, true , false, false, false, false, false, false, true , false, true , false, false, false, false, true , false, false, false, true , false, false, true , false, false, false, false, false, true , false, false, true , false, false, false, false, false, true , false, false, false, false, false, false, false, false, false, true , true , false, false, true , false, false, true , false, false, false, false, false, true , false, false, false, false, true , false, false, true , false, false, false, false, false, true , false, false, false, false, false, false, false, true , false, false, false, false, false, true , false, false, false, false, false, false, true , false, false, true , false, false, false, true , false, false, false, false, false, false, false, false, true , false, false, false, true , false, false, true , false, false, false, false, false, false, false, false, false, false, false, false, false, false, true , false, false, false, false, false, true , false, false, false, false, false, false, false, true , false, false, false, false, false, false, false, false, false
|false, true , false, true , false, false, false, false, true , false, true , true , false, false, false, false, false, false, false, false, false, false, true , false, false, false, false, true , false, true , false, false, false, false, false, false, false, true , false, false, false, false, false, false, false, false, false, true , false, true , false, true , false, false, true , false, false, false, true , false, true , false, false, false, false, false, false, false, false, true , false, false, false, false, true , false, false, false, false, false, false, false, false, false, false, false, false, false, true , false, false, false, false, false, false, false, false, false, false, false, false, false, false, false, true , false, true , false, true , false, false, true , false, false, true , false, false, false, true , false, false, false, true , false, false, false, false, true , false, false, false, false, false, true , false, false, false, false, false, true , false, false, false, true , false, false, false, false, true , false, false, false, false, true , false, false, false
|false, false, true , true , false, true , false, false, false, false, false, true , false, false, false, false, false, false, false, false, false, true , true , false, false, false, false, true , false, true , false, false, false, false, true , false, false, false, false, true , false, false, false, false, false, false, false, false, false, true , false, false, false, false, false, false, false, false, true , false, true , false, false, false, false, false, false, false, false, true , false, false, false, false, false, true , false, false, false, false, false, false, true , false, false, false, false, false, false, false, false, false, false, false, false, false, false, true , false, false, true , false, false, true , true , false, true , false, true , false, false, true , false, true , true , false, false, false, true , false, false, false, true , false, false, false, false, true , true , true , false, true , false, true , false, false, false, false, false, false, false, false, false, true , true , true , false, false, true , false, true , false, false, true , false, false, false
|false, false, true , true , false, true , false, false, false, false, false, true , false, false, false, true , false, false, false, false, false, true , false, false, false, false, false, true , false, false, false, true , false, false, true , false, false, false, false, true , false, false, false, false, false, false, false, false, false, true , true , false, false, false, true , false, true , false, true , false, false, false, false, false, true , false, false, false, false, true , false, false, false, false, false, true , false, false, false, false, false, false, true , true , false, false, false, false, false, false, false, false, true , false, false, false, false, true , false, false, true , false, false, true , false, false, false, false, false, false, false, false, false, true , true , false, false, false, true , false, false, false, true , true , false, false, false, true , true , true , false, true , false, false, false, false, true , false, false, false, false, false, false, false, true , true , false, false, true , false, true , false, false, true , false, false, false
|false, false, true , false, false, true , false, false, false, false, false, true , false, false, false, true , false, false, false, false, false, false, false, false, false, false, false, true , false, false, false, true , false, false, false, false, false, false, false, false, false, false, false, false, false, false, false, false, false, false, true , false, false, false, true , false, true , false, false, false, false, false, false, false, true , false, false, false, false, true , false, false, false, false, false, true , false, false, false, false, false, false, true , true , false, false, false, false, false, false, false, false, true , true , false, false, false, false, false, true , true , false, false, false, false, false, false, false, false, false, false, false, false, true , false, false, false, false, true , false, false, false, false, true , false, false, false, false, true , true , false, false, false, false, false, false, true , false, false, false, false, false, false, false, true , true , false, false, false, false, true , false, false, false, false, false, false
|false, false, false, false, false, true , false, false, false, false, false, false, false, false, false, true , false, false, false, false, false, false, false, false, false, false, false, true , false, false, false, false, false, false, false, false, false, false, false, false, false, false, false, false, false, false, false, false, false, false, false, false, false, false, true , false, false, false, false, false, false, false, false, false, true , false, false, false, false, true , false, false, false, false, false, true , false, false, false, false, false, false, false, false, false, false, false, false, false, false, false, false, true , true , false, false, false, false, false, true , false, false, false, false, false, false, false, false, false, false, false, false, false, true , false, false, false, false, false, false, false, false, false, true , false, false, false, false, true , true , false, false, false, false, false, false, true , false, false, false, false, false, false, false, true , true , false, false, false, false, true , false, false, false, false, false, false
|false, false, false, false, false, false, false, false, false, false, false, false, false, false, false, false, false, false, false, false, false, false, false, false, false, false, false, false, false, false, false, false, false, true , true , false, false, true , false, false, true , false, true , false, false, false, false, false, false, false, true , false, false, false, false, true , true , false, false, false, false, false, false, false, false, false, false, false, false, false, false, false, false, false, false, false, true , false, false, true , false, false, false, true , false, false, false, true , false, false, false, false, false, false, false, false, false, false, true , false, false, false, false, false, false, true , true , false, false, false, false, false, false, false, true , false, false, true , false, false, false, false, false, false, true , false, false, false, true , false, true , true , true , true , true , false, false, false, false, false, true , true , false, false, false, false, false, false, true , true , false, false, true , false, true , true , false
|false, false, false, false, false, false, false, false, false, false, false, false, false, false, true , true , false, true , false, false, true , false, true , false, false, false, false, false, false, false, false, false, false, true , true , false, false, true , false, false, true , false, true , false, true , true , false, false, false, false, true , false, false, false, false, true , true , false, false, false, false, false, false, false, false, false, false, true , false, true , false, false, false, false, false, true , true , false, false, true , true , false, true , true , false, false, false, true , false, false, false, false, false, false, false, false, false, false, true , false, false, false, false, false, false, true , true , false, false, false, false, false, false, false, true , false, false, true , false, true , false, false, false, false, true , true , false, false, true , false, true , true , true , true , true , false, false, false, false, false, true , true , false, false, false, false, false, false, true , true , false, false, true , false, true , true , false
|false, false, false, false, false, false, false, false, false, false, false, false, false, false, true , true , false, true , false, false, true , true , true , false, false, false, false, false, false, false, false, false, false, true , true , false, false, true , false, false, false, false, false, false, true , true , false, false, false, false, false, true , false, false, false, false, true , false, false, false, false, false, false, false, false, false, false, true , true , true , false, false, false, false, false, true , true , false, false, true , true , false, true , true , false, false, false, true , false, false, false, false, false, false, false, false, false, false, true , false, false, false, false, false, false, false, true , false, false, false, false, false, false, false, true , false, false, true , false, true , false, false, false, false, false, true , false, false, true , false, true , true , false, false, false, false, false, false, false, false, false, false, false, false, false, false, false, false, true , false, false, false, false, false, true , true , false
|false, false, false, false, false, false, false, false, false, false, false, false, false, false, true , true , true , true , false, false, false, true , true , false, false, false, false, false, false, false, false, false, false, false, true , false, false, false, false, false, true , false, false, false, false, true , true , false, false, false, false, true , false, false, false, false, false, false, false, false, false, false, false, false, false, false, false, false, true , false, false, false, true , false, false, true , false, false, false, false, true , false, false, true , false, false, false, false, false, true , false, false, false, false, false, false, false, false, false, true , false, false, false, false, false, false, true , false, false, false, false, false, true , true , false, false, true , false, false, true , false, false, false, false, false, true , false, false, false, false, false, false, true , false, false, false, false, false, false, false, false, false, false, false, false, false, false, true , false, false, false, false, false, false, false, false, false
|false, false, false, false, false, false, false, false, false, false, false, false, false, false, false, false, true , true , true , false, true , true , false, true , false, false, false, false, false, false, true , false, true , false, true , false, true , false, false, false, true , false, false, false, true , false, true , false, false, false, false, true , false, false, false, false, false, false, false, false, true , false, false, false, false, false, false, false, false, false, false, false, true , false, false, false, false, false, false, false, false, false, true , true , false, false, false, false, true , true , false, false, false, false, false, false, false, false, false, true , false, false, true , false, false, false, false, false, true , false, false, false, true , true , false, false, true , false, false, false, false, false, false, false, false, false, false, true , false, false, false, false, true , false, false, false, false, false, false, false, false, false, false, false, false, false, false, true , false, false, true , false, false, false, false, false, false
|false, false, false, false, false, false, false, false, true , true , false, false, false, false, false, false, false, true , true , false, true , true , false, true , false, false, false, false, false, false, true , false, true , false, true , false, true , false, false, false, true , false, false, false, true , false, true , false, false, false, false, false, false, false, false, false, false, false, false, false, true , false, false, false, false, false, false, false, false, false, false, false, true , false, false, false, false, true , false, false, false, false, true , false, false, true , false, false, true , true , false, false, false, false, false, false, false, false, false, true , false, false, true , false, false, false, false, false, true , false, false, false, false, false, false, false, true , false, false, false, false, false, false, false, false, false, false, true , false, false, false, false, false, false, false, false, false, false, false, false, false, false, false, false, false, false, false, true , true , false, true , false, false, false, false, false, false
|false, false, false, false, false, false, true , false, true , true , false, false, false, false, false, false, false, true , true , false, false, true , false, true , false, false, false, true , false, false, true , false, true , false, true , false, true , false, false, false, false, false, false, false, false, false, false, true , false, false, true , false, false, false, false, false, false, false, false, false, true , false, false, false, false, false, true , false, false, false, false, false, false, true , false, false, false, true , false, false, false, false, true , false, false, true , false, false, true , false, false, false, false, false, false, false, true , false, false, false, false, false, false, false, false, false, false, false, false, false, false, true , false, false, false, false, false, false, false, false, false, false, false, false, false, false, false, true , false, false, false, false, false, false, false, false, false, false, false, false, false, false, false, false, false, false, false, false, true , false, true , false, false, false, false, false, false
|false, false, false, false, false, false, true , false, true , false, false, false, false, false, false, false, false, false, true , false, false, false, false, true , false, false, true , true , false, false, false, false, false, false, true , false, false, false, false, false, false, false, false, false, false, false, false, true , false, true , true , false, false, false, false, false, false, false, false, false, false, false, false, false, false, false, true , false, false, false, false, true , false, true , false, false, false, false, false, false, false, true , false, false, false, false, false, false, false, false, false, true , false, false, false, false, true , false, false, false, false, false, false, false, false, false, false, false, false, true , false, true , false, false, false, false, false, false, false, false, false, true , false, false, false, false, false, true , false, false, false, false, false, false, false, false, false, false, false, false, false, true , false, false, true , false, false, false, true , false, false, false, false, false, false, false, false
|false, false, false, false, false, false, false, false, false, false, false, false, false, false, false, false, false, false, false, false, false, false, false, false, false, false, true , false, false, false, false, false, true , false, true , false, false, false, false, false, false, false, true , false, true , false, false, false, false, true , true , false, true , false, false, false, false, false, false, false, false, false, true , false, false, true , false, false, false, false, false, true , false, true , false, false, false, false, false, true , false, true , false, false, false, false, false, false, true , false, false, true , false, false, false, false, false, false, false, false, true , false, false, false, false, false, false, false, false, true , false, true , false, false, true , false, false, false, false, false, false, true , false, true , false, false, true , false, false, false, false, false, false, false, false, false, false, true , false, false, false, true , false, false, true , false, false, false, false, false, false, false, true , false, false, false, true 
|false, false, false, false, false, false, true , false, false, false, true , false, false, false, false, false, false, false, false, false, false, false, false, false, true , false, false, false, false, false, false, false, true , false, true , true , false, false, false, false, false, false, true , false, true , false, false, false, false, true , false, false, true , false, true , false, false, false, false, false, false, false, true , false, false, true , false, false, false, false, false, true , false, false, false, false, false, false, true , true , false, true , false, false, false, false, false, false, true , false, false, true , false, false, false, false, false, false, false, true , true , false, true , false, false, false, false, false, false, false, false, false, false, false, true , false, false, false, false, false, false, true , false, true , false, false, true , false, false, false, false, true , false, false, false, false, false, true , false, false, false, true , true , false, true , false, false, false, false, false, false, false, true , true , false, false, true 
|false, false, false, false, false, false, true , false, false, false, true , false, false, false, false, false, false, true , false, false, false, false, false, false, true , true , false, false, false, false, false, false, true , false, true , true , false, false, false, false, false, false, true , false, true , false, false, false, false, false, false, false, true , false, true , false, false, false, false, false, false, false, false, true , false, true , false, false, false, false, false, true , false, false, false, false, false, false, true , true , false, false, false, false, false, false, false, false, true , false, false, false, false, false, false, false, false, false, false, true , true , false, true , false, false, false, false, false, false, false, false, false, false, false, true , false, false, false, false, false, false, false, false, true , false, false, true , false, false, false, false, true , false, false, false, false, false, true , false, false, false, false, true , false, false, false, false, false, false, false, false, false, false, true , false, false, true 
|false, false, false, false, true , false, false, false, false, false, true , false, false, false, false, false, false, true , false, false, false, false, false, true , true , true , false, false, false, false, false, false, false, false, false, true , false, false, false, false, false, true , false, false, false, false, false, true , false, false, false, false, true , false, true , false, false, false, false, false, true , false, false, true , false, false, true , true , false, false, false, false, false, true , false, false, false, false, true , true , false, false, false, false, false, false, false, false, false, false, false, false, false, false, false, false, false, false, false, true , false, false, true , false, false, false, false, true , true , true , false, false, false, false, true , false, false, false, false, false, false, false, false, false, true , false, false, false, false, false, false, true , false, false, true , false, false, true , false, false, true , false, true , false, false, false, false, false, false, false, false, false, false, true , false, false, false
|false, false, false, true , true , false, true , false, false, false, false, false, false, true , false, false, false, false, false, false, false, false, false, true , true , true , false, false, false, false, false, false, false, false, false, false, false, false, false, false, false, true , false, false, false, false, false, true , false, false, false, false, true , false, false, false, false, true , false, false, true , false, false, false, false, false, true , true , false, false, false, false, false, true , false, false, false, true , false, false, false, false, false, false, false, false, false, false, false, false, true , true , false, true , false, false, true , false, false, false, false, true , false, true , false, false, false, true , true , true , true , false, true , false, true , false, false, false, false, true , false, false, false, false, true , false, false, true , false, false, false, false, true , false, true , false, false, true , false, false, true , false, true , false, false, false, false, false, false, true , false, false, false, true , true , false, false
|false, true , false, true , true , false, true , false, false, false, false, false, false, true , false, false, false, false, false, false, false, false, false, false, false, true , false, false, false, false, false, false, true , false, false, false, false, false, false, true , false, true , false, false, false, false, false, true , false, false, false, false, false, false, false, false, false, true , false, false, true , false, false, false, false, false, false, false, false, false, false, false, false, true , false, false, false, true , false, true , false, false, false, false, false, false, false, false, false, false, true , true , false, true , true , false, true , false, false, false, false, true , false, true , false, false, false, true , false, false, true , false, true , false, false, false, false, false, false, true , false, false, false, false, true , false, false, true , false, false, false, false, true , false, true , false, false, true , true , false, false, false, true , false, false, false, false, false, false, true , false, false, false, false, true , false, false
|false, true , false, true , false, false, true , false, false, false, false, false, false, true , false, false, false, false, false, false, false, true , false, false, false, true , false, false, false, false, false, false, true , false, false, false, false, false, false, true , false, false, false, false, false, false, false, false, false, false, false, false, false, true , false, false, false, true , false, false, true , false, false, false, false, true , false, false, false, false, false, false, false, false, false, false, false, true , false, true , false, false, false, false, false, false, false, false, false, false, true , true , false, true , true , false, false, false, true , false, false, true , false, true , false, false, false, false, false, false, true , false, true , false, false, true , false, false, false, true , false, false, false, false, false, false, false, true , false, false, false, true , false, false, false, false, false, false, true , false, false, false, false, false, false, false, false, false, false, true , false, false, false, false, true , false, false
|false, false, false, true , false, false, true , false, false, false, false, false, false, false, false, false, false, false, false, false, false, true , false, false, false, true , false, false, false, false, false, false, true , false, false, false, false, false, false, false, false, false, false, false, false, false, false, false, false, false, false, false, false, true , false, false, false, false, false, false, true , false, false, false, false, true , false, false, false, false, false, false, false, false, false, false, false, true , false, false, false, false, false, false, false, false, false, false, false, false, true , true , false, false, true , false, false, false, true , false, false, false, false, true , false, false, false, false, false, false, true , false, true , false, false, true , false, false, false, false, false, false, false, false, false, false, false, true , false, false, false, true , false, false, false, false, false, false, false, false, false, false, false, false, false, false, false, false, false, true , false, false, false, false, true , false, false
|false, false, false, false, false, false, false, false, false, false, false, false, false, false, false, false, false, false, false, false, false, false, true , false, false, false, false, false, false, false, false, false, false, false, false, true , true , false, false, true , true , false, false, false, false, false, false, false, false, true , false, false, true , true , true , true , false, true , false, false, false, false, false, true , true , false, false, false, false, true , true , false, false, false, false, false, false, false, true , true , false, true , false, false, false, true , false, false, false, false, true , true , true , false, false, false, false, false, false, false, true , false, false, false, false, false, false, false, false, false, false, false, false, true , false, false, false, true , false, false, false, false, false, false, false, true , true , true , false, false, false, false, false, false, false, false, true , false, true , false, false, false, true , true , false, false, false, false, false, false, false, false, true , true , false, false, false
|false, false, false, false, false, false, true , false, false, false, true , false, false, false, false, false, false, false, false, true , false, true , true , false, false, false, false, false, false, false, false, false, false, false, false, true , true , false, false, true , true , false, true , false, false, false, false, false, false, true , true , false, true , true , true , true , false, true , true , false, false, true , false, true , true , true , false, false, false, true , true , false, false, false, false, false, false, false, true , true , false, true , false, false, true , true , false, false, false, false, true , true , true , false, false, false, false, false, false, false, true , false, false, false, false, true , false, false, false, true , false, false, false, true , false, false, false, true , false, false, false, false, false, false, false, true , true , true , false, false, false, false, false, false, true , false, true , false, true , false, false, false, true , true , false, true , false, false, false, false, false, true , true , true , false, false, false
|false, false, false, false, false, false, true , false, false, false, true , false, false, false, false, false, false, false, false, true , false, true , true , false, false, false, false, false, false, false, false, false, false, false, false, true , true , false, false, true , false, false, true , false, false, false, false, false, false, true , true , false, true , true , true , true , false, true , true , false, false, true , false, true , true , true , false, false, false, true , true , false, false, false, false, false, true , false, true , true , false, true , false, false, true , true , false, false, false, false, true , true , true , false, false, false, false, false, false, false, true , false, false, false, false, true , false, false, false, true , false, false, false, true , false, false, false, true , false, false, false, false, false, false, true , true , true , true , false, false, false, false, false, false, true , false, true , false, true , true , false, false, false, false, false, true , false, false, true , false, false, true , true , true , true , false, false
|false, false, false, false, false, false, false, false, false, true , false, false, false, false, false, false, true , false, false, false, false, true , true , false, false, false, false, false, false, false, false, false, false, false, false, false, false, false, false, false, true , false, false, false, false, false, false, false, false, true , true , false, true , false, false, false, true , false, false, false, false, true , false, false, false, true , false, false, false, false, false, false, false, false, false, false, true , false, true , false, true , false, false, false, true , false, false, false, false, true , false, false, true , false, false, false, false, false, false, false, false, false, false, true , false, false, false, false, false, true , false, false, false, false, false, false, false, false, true , false, false, true , false, false, true , false, false, false, false, false, false, false, false, false, true , false, false, false, false, true , false, false, false, false, true , true , true , false, true , false, false, true , true , false, true , false, false
|false, false, false, false, false, false, false, false, false, true , false, false, true , false, false, false, true , true , false, false, false, false, true , false, false, false, false, false, false, false, false, false, false, false, false, false, false, false, false, false, true , false, true , false, false, false, false, false, false, true , false, false, false, false, false, false, true , false, false, false, false, false, false, false, false, false, false, false, false, false, false, false, false, false, false, false, false, false, true , false, true , false, false, false, false, false, false, false, false, true , false, false, false, false, true , false, false, false, false, false, false, true , false, true , false, false, false, false, false, false, false, false, false, false, true , false, false, false, true , true , false, true , false, false, true , false, false, true , false, false, true , false, false, false, false, false, false, false, false, true , false, false, false, false, true , false, true , false, true , false, false, false, true , false, false, false, false
|false, false, false, false, false, false, false, false, false, true , false, false, true , false, false, false, true , true , false, false, false, false, false, false, false, false, false, false, false, false, false, false, false, false, false, false, false, true , false, false, false, false, true , false, false, false, false, false, false, true , false, false, false, false, false, false, true , false, false, false, false, false, false, false, false, false, false, false, false, true , false, false, false, false, false, false, false, false, false, false, true , false, false, false, false, true , false, false, false, true , false, false, false, false, true , false, false, false, false, false, false, true , false, true , false, false, false, false, false, false, false, false, false, false, true , false, false, false, true , true , false, true , false, false, false, true , false, true , false, false, true , false, false, false, false, false, false, false, false, false, false, false, false, false, false, false, true , false, false, false, false, false, false, true , false, false, false
|false, false, false, false, false, false, false, false, false, true , false, false, true , false, false, false, false, false, false, false, false, false, false, false, false, false, false, false, false, true , false, false, false, false, false, false, false, true , true , false, false, false, false, true , false, false, false, false, false, false, false, false, false, true , false, false, false, false, false, false, false, false, false, false, false, false, false, false, false, true , false, false, false, false, false, false, false, true , false, false, true , false, false, false, false, true , false, false, false, false, false, false, false, false, true , false, false, false, false, false, false, true , false, false, false, true , false, false, false, false, false, false, false, false, true , false, false, false, true , true , false, false, false, false, false, true , false, true , false, false, true , false, false, false, false, false, false, false, false, false, false, false, false, true , false, false, false, false, false, false, false, false, false, true , false, false, false
|false, false, false, false, false, true , false, false, false, true , false, false, false, false, false, false, false, false, false, false, false, false, false, false, false, false, false, false, false, false, false, false, false, false, false, false, false, true , true , true , false, false, false, true , false, false, false, false, false, false, false, false, false, true , false, false, false, false, false, false, false, false, false, false, false, false, false, false, false, false, false, false, false, false, false, false, false, true , false, false, true , false, false, false, false, false, false, true , false, false, false, false, false, false, false, false, false, false, true , false, false, false, false, false, false, true , false, false, false, false, false, false, false, false, false, false, false, false, true , false, false, false, false, false, false, false, false, false, false, false, false, false, false, false, false, false, false, false, false, false, false, false, false, true , false, false, false, false, false, false, true , true , false, false, false, false, false
|false, false, true , false, false, true , false, false, false, true , false, false, false, false, false, false, false, false, false, false, false, false, false, false, false, false, true , true , false, false, false, false, false, false, false, false, false, false, true , true , false, true , false, true , false, false, false, false, true , false, true , false, false, true , true , false, false, false, false, false, false, false, true , false, false, false, false, false, false, false, false, false, false, false, true , false, false, true , false, false, false, false, false, false, false, false, true , true , false, false, false, false, false, false, false, false, true , false, true , false, false, true , false, false, false, false, false, false, false, false, false, false, false, false, false, false, false, false, true , false, true , false, false, false, false, false, false, false, false, false, true , false, false, false, false, false, false, false, false, false, false, false, false, true , false, false, false, false, false, false, true , true , false, false, false, false, false
|false, false, true , false, false, true , false, false, false, false, false, false, false, false, false, true , false, false, false, false, false, false, false, false, true , false, true , true , false, false, false, false, false, false, false, false, false, false, true , true , false, true , false, false, true , false, false, false, true , false, true , false, false, false, true , false, false, false, true , false, false, false, true , false, true , false, false, false, true , false, true , true , false, false, true , false, true , true , false, false, false, false, false, false, false, false, true , false, false, true , false, false, false, false, false, false, true , true , true , false, false, true , false, false, false, false, false, false, false, false, false, false, false, false, true , true , false, false, true , false, true , false, false, false, false, false, true , false, false, false, true , false, false, false, false, true , false, false, false, false, false, false, false, true , true , false, false, false, false, false, true , true , false, false, false, false, false
|false, false, false, false, false, false, false, true , true , false, false, false, false, false, false, true , false, false, false, false, false, false, false, false, true , false, true , true , false, false, false, false, false, false, false, true , false, false, true , true , false, false, false, false, true , false, false, false, true , false, false, false, false, false, true , false, false, false, true , false, false, false, true , true , true , false, false, false, true , false, true , true , false, false, true , false, true , false, false, false, false, false, false, false, false, false, true , false, false, true , false, false, false, false, false, false, true , true , false, false, false, true , false, false, false, false, false, false, false, false, false, false, false, false, true , true , false, false, true , false, true , false, false, false, false, false, true , false, false, false, true , false, false, false, false, true , false, false, false, false, false, false, false, true , true , false, false, false, false, false, true , false, false, false, false, false, false
|true , false, false, false, true , false, false, true , true , true , false, true , true , false, false, true , false, false, false, false, false, false, false, false, true , true , false, false, true , false, false, false, false, false, false, true , false, false, true , false, false, false, false, true , false, false, false, false, false, false, false, false, false, true , false, false, false, false, false, false, false, false, true , true , true , false, false, true , true , false, true , true , false, true , false, true , true , false, false, false, false, false, false, false, true , false, false, false, false, false, false, false, false, false, false, false, false, true , false, false, false, false, false, false, false, true , false, false, false, false, false, false, false, true , false, true , false, true , true , false, false, false, false, true , false, false, true , false, true , false, true , false, false, false, false, true , false, false, false, false, false, false, true , true , true , false, false, false, false, false, true , false, false, false, false, false, false
|true , false, false, false, true , false, false, true , false, true , false, true , true , true , false, false, false, false, false, false, false, false, false, false, false, true , false, false, true , true , false, false, false, false, false, false, false, false, true , false, false, false, false, true , true , true , false, false, false, false, false, true , false, true , false, false, false, true , false, true , false, false, true , false, false, false, false, true , true , false, false, false, false, true , false, true , false, false, true , false, false, true , false, false, true , true , false, false, false, false, false, true , false, false, false, false, false, false, true , false, false, false, true , false, false, true , false, false, true , false, false, false, false, true , true , true , false, true , false, false, false, false, true , true , false, false, true , false, true , false, true , false, false, false, false, false, false, false, false, true , false, false, true , true , true , false, false, false, false, false, false, false, false, false, false, false, false
|true , false, false, false, true , false, false, true , false, true , false, false, true , true , false, false, true , false, false, false, true , false, false, false, false, false, false, false, true , true , false, false, false, true , false, false, false, false, true , false, false, false, false, false, true , true , false, false, false, false, false, true , false, true , false, false, false, true , false, true , false, false, true , false, false, false, false, false, true , false, false, false, false, false, false, false, false, false, true , false, true , true , false, false, false, true , false, false, false, false, false, true , false, true , false, false, false, false, true , true , false, false, true , false, false, true , false, false, true , false, false, false, false, false, true , true , false, false, false, false, false, false, true , true , false, false, true , false, false, false, true , false, true , false, false, true , false, false, false, true , false, false, false, true , false, false, false, false, false, false, false, false, false, false, false, true , false
|false, false, false, false, false, false, false, true , false, false, false, false, false, false, false, false, true , false, false, false, true , false, false, false, false, false, false, false, true , true , false, false, false, true , false, false, false, false, true , false, false, false, false, false, true , true , false, false, false, false, true , false, false, false, false, false, false, true , false, true , false, false, false, false, false, false, false, false, true , false, false, false, false, false, false, false, false, false, true , false, true , true , false, false, false, true , false, false, false, false, false, true , false, true , false, false, false, false, false, true , false, false, true , false, false, true , false, false, true , false, false, false, false, false, true , false, false, false, false, true , false, false, true , false, false, false, true , false, false, false, false, false, true , false, false, true , false, false, false, true , false, false, false, true , false, false, false, false, false, false, false, false, false, false, false, true , false
|false, false, false, false, false, false, false, true , false, false, false, false, false, false, false, false, true , false, false, false, true , false, false, false, false, false, false, false, true , true , false, false, false, false, false, false, false, false, true , false, false, false, false, false, true , true , false, false, false, false, true , false, false, false, false, false, false, false, false, true , false, false, false, false, false, false, false, false, true , false, false, false, false, false, false, false, false, false, true , false, true , true , false, false, false, false, false, false, false, false, false, false, false, false, false, false, false, false, false, true , false, false, true , false, false, true , false, false, true , false, false, false, false, false, true , false, false, false, false, true , false, false, false, false, false, false, true , false, false, false, false, false, false, false, false, false, false, false, false, true , false, false, false, true , false, false, false, false, false, false, false, false, false, false, false, true , false
|false, false, false, false, false, false, false, false, false, false, false, true , false, false, false, false, false, false, false, false, false, false, false, false, false, false, true , false, false, false, false, false, false, false, false, false, false, false, false, false, false, false, false, false, false, false, false, true , false, true , false, true , false, false, false, false, false, false, false, false, false, false, false, false, false, false, false, true , true , false, false, false, false, false, false, true , false, false, false, false, false, true , false, false, false, false, true , false, true , false, true , true , true , false, false, false, false, true , false, false, true , false, true , true , true , true , false, false, false, false, false, false, false, false, false, false, false, false, false, false, false, false, true , true , false, false, false, false, false, false, false, false, true , false, false, false, true , false, false, false, false, false, false, true , true , false, true , false, true , false, false, false, false, false, false, false, false
|false, false, false, false, false, false, false, false, false, false, false, true , false, false, false, false, false, false, false, false, false, false, false, false, false, false, true , false, true , false, false, false, true , false, false, false, false, true , false, false, false, false, false, false, false, true , false, true , false, true , false, true , false, false, false, false, false, false, false, true , false, false, false, false, true , false, false, true , true , false, false, false, false, false, false, true , false, false, false, false, false, true , false, false, false, false, true , true , true , false, true , true , true , false, false, false, false, true , false, false, true , false, true , true , true , true , false, true , false, false, false, true , true , false, false, false, false, false, false, false, false, true , true , true , false, false, false, false, false, false, false, false, true , false, false, true , true , false, false, false, false, false, false, true , true , true , true , false, true , false, false, false, false, false, false, false, false
|false, false, false, false, false, false, false, false, false, false, false, true , false, false, false, false, true , false, false, false, false, false, false, false, false, false, false, false, true , false, false, false, true , false, false, false, false, true , false, false, false, false, false, false, false, true , false, true , false, false, false, true , false, false, false, false, false, false, false, true , false, true , false, false, true , false, false, true , true , false, false, false, false, true , false, true , false, false, false, false, true , true , false, false, false, false, true , true , true , false, false, false, true , false, false, false, false, false, false, false, true , false, true , true , true , false, false, true , false, false, false, true , true , false, false, false, false, false, false, false, false, true , false, true , false, false, false, false, false, false, false, false, true , false, false, true , false, false, false, false, true , false, false, true , true , true , true , false, true , false, false, false, false, false, false, true , false
|false, false, false, false, false, false, false, true , false, false, false, false, false, false, false, false, true , false, false, false, false, false, false, false, false, true , false, false, true , true , false, false, true , false, false, false, false, false, false, false, false, false, false, false, false, true , false, false, false, false, false, false, false, false, false, false, false, false, false, true , false, true , false, true , false, false, false, false, false, false, false, true , false, true , false, true , false, false, false, false, true , false, false, false, false, false, false, true , false, false, false, false, false, false, false, false, false, false, false, false, false, false, false, true , false, true , true , true , false, false, false, true , true , false, false, false, false, false, false, true , false, true , false, false, false, false, false, false, false, false, false, false, false, false, false, true , false, false, false, false, true , false, false, false, false, true , false, false, false, true , false, false, false, false, true , true , false
|false, false, false, false, false, false, false, true , false, false, false, false, false, false, false, false, false, false, true , false, false, false, true , false, false, true , false, true , true , true , false, false, false, false, true , false, false, false, false, false, false, false, false, true , false, false, false, false, false, false, false, false, false, true , false, false, true , false, false, false, false, true , false, true , false, false, false, true , false, false, false, true , false, false, false, false, false, false, false, false, true , false, false, false, true , false, false, false, false, false, false, false, false, false, false, false, false, false, true , false, false, false, false, true , true , true , true , true , true , false, false, false, false, false, false, false, false, false, false, true , false, false, false, false, false, true , false, false, false, false, false, false, false, false, false, false, false, false, false, false, true , false, false, false, false, false, false, false, false, true , false, false, false, false, true , false, false
|true , false, false, false, false, true , true , false, false, false, false, false, false, true , false, false, false, false, true , false, false, false, true , false, false, true , false, true , true , true , false, false, false, true , true , false, false, false, false, false, false, false, false, true , false, false, false, false, false, false, false, false, false, true , false, false, true , false, false, false, false, false, false, false, false, false, false, true , true , false, false, true , false, false, false, false, false, false, false, false, false, false, false, false, true , false, false, false, false, false, false, false, false, false, false, false, false, false, true , false, false, false, false, true , true , true , true , true , true , false, false, false, false, false, false, false, false, false, false, true , false, false, false, false, false, true , false, false, false, false, false, false, false, false, false, false, false, false, false, false, false, false, false, false, false, false, false, false, false, false, false, false, false, false, true , false, false
|true , false, true , false, false, true , true , false, false, false, false, false, false, true , false, false, false, false, true , false, false, false, false, false, false, false, true , true , true , false, false, false, false, true , false, false, false, false, false, false, false, false, false, true , false, false, false, false, true , false, false, false, false, false, false, false, true , false, false, false, false, false, false, false, false, false, false, true , true , false, false, false, false, false, false, false, false, true , false, false, false, false, false, false, true , false, false, true , false, false, true , false, false, false, false, false, false, false, true , false, false, false, false, false, true , false, false, true , true , false, false, false, false, true , false, false, false, false, false, false, false, false, false, false, false, false, false, false, true , false, false, false, false, false, false, false, false, false, false, false, false, false, false, false, false, false, false, false, false, false, false, false, false, true , false, false, false
|false, false, true , true , false, false, false, false, false, false, false, true , false, true , false, true , false, true , false, false, false, false, false, false, false, false, true , false, false, true , false, false, false, true , false, false, false, false, true , false, false, false, false, false, false, false, false, false, true , false, false, false, false, false, false, false, false, false, false, false, false, false, false, false, false, false, true , false, false, false, false, false, false, false, false, false, false, true , false, false, false, false, false, false, true , false, false, true , false, false, true , false, false, false, false, false, false, true , false, false, false, false, false, false, false, false, false, false, false, false, false, false, false, true , false, false, false, false, false, false, false, true , false, false, false, false, false, false, true , false, false, false, false, false, false, false, false, false, false, false, false, false, false, false, false, false, false, false, false, false, false, false, false, true , false, false, false
|false, false, true , true , false, false, false, false, false, false, false, true , true , true , false, true , false, false, false, false, false, false, false, false, false, false, false, false, false, true , false, false, false, false, false, false, false, false, true , false, true , false, false, false, false, false, false, false, true , false, false, false, false, false, false, false, false, false, false, false, false, false, false, true , false, false, true , false, false, false, false, false, false, false, false, true , false, true , false, false, false, false, false, true , true , false, false, true , false, false, false, false, false, false, true , false, false, true , false, false, false, false, false, true , false, false, false, false, false, true , false, false, false, false, false, false, false, false, false, false, false, true , true , false, false, false, false, false, true , false, false, false, true , false, false, false, false, false, false, false, false, false, true , false, false, false, true , false, false, false, true , true , false, false, false, false, false
|true , false, true , true , false, true , false, true , false, false, false, true , true , true , false, true , false, false, false, false, false, false, false, false, false, false, false, false, false, true , true , false, false, false, false, false, false, false, true , false, true , false, false, true , false, false, false, false, false, false, false, false, false, false, false, false, false, false, false, false, false, false, true , true , false, false, false, false, false, false, false, false, true , false, false, true , true , false, false, false, false, false, false, true , false, false, false, false, false, false, false, false, false, false, true , false, false, true , false, true , false, false, false, true , false, false, false, false, true , true , false, false, false, false, false, false, false, false, false, false, false, true , true , false, false, false, false, false, true , false, false, false, true , false, false, false, false, false, false, false, false, false, true , false, false, false, true , false, false, false, true , true , false, false, false, false, false
|true , false, true , false, false, true , false, true , false, false, false, false, false, false, false, false, false, false, false, false, false, false, false, false, false, false, false, false, false, false, true , false, false, false, false, false, false, false, false, false, false, false, false, true , false, false, false, false, true , false, false, false, false, false, false, false, false, false, false, false, false, true , true , true , false, false, false, false, false, false, false, false, true , false, false, true , true , false, false, false, false, false, false, true , false, true , false, false, false, true , false, false, false, false, true , false, false, false, false, true , false, false, false, true , false, false, true , false, true , true , false, false, false, false, false, false, false, false, false, false, false, false, true , false, false, false, false, false, true , false, false, false, true , false, false, false, false, false, false, false, false, true , false, false, false, false, false, false, false, false, true , true , false, false, false, false, false
|true , false, true , false, false, true , false, true , false, false, false, false, false, false, false, false, false, false, true , false, true , false, false, false, false, false, false, false, false, false, true , false, false, false, false, false, false, false, false, false, false, false, false, false, false, false, false, false, true , false, false, false, false, false, false, false, false, false, false, false, false, true , true , false, false, false, false, false, false, false, false, false, true , false, false, false, true , false, false, false, false, false, true , false, false, true , false, false, false, true , false, false, false, false, false, false, true , false, false, true , false, false, false, true , false, false, true , false, true , false, false, false, false, false, false, false, false, false, false, false, false, false, false, false, true , false, false, false, true , false, false, false, false, false, false, false, false, false, false, false, false, true , false, false, false, false, false, false, false, true , false, false, true , false, false, false, false
|false, false, false, false, false, false, false, false, true , false, true , false, false, false, true , false, false, true , true , false, true , false, false, false, false, false, false, false, false, false, true , false, false, false, false, false, false, false, true , false, false, false, false, true , false, false, false, false, false, false, false, true , false, false, true , false, false, false, false, false, false, false, true , false, false, true , false, true , false, false, false, false, false, false, false, false, false, false, false, false, false, false, true , false, false, true , true , true , true , true , false, false, false, false, true , false, true , true , false, false, true , false, false, false, false, false, false, false, false, false, false, false, false, false, false, false, false, true , false, false, false, false, false, false, true , false, false, false, true , false, false, false, false, false, true , false, true , false, true , false, false, false, false, false, false, false, false, true , false, true , false, true , true , true , false, false, false
|false, false, false, false, false, false, false, false, true , false, true , false, false, false, true , false, false, true , false, false, true , false, false, false, true , false, false, false, false, false, true , false, false, false, false, false, false, false, true , false, false, false, false, true , false, false, false, false, false, false, false, true , false, false, true , false, false, false, true , false, false, false, true , false, false, true , false, true , false, false, false, false, false, false, false, false, false, false, false, false, false, false, true , false, false, true , true , true , true , true , false, false, true , false, true , false, true , true , false, true , true , false, false, false, false, false, false, false, false, false, false, false, false, false, false, false, false, true , false, false, false, false, false, false, true , false, false, false, true , false, false, false, false, false, true , false, true , false, true , false, false, false, false, false, false, false, false, true , false, true , false, true , true , true , false, false, true 
|false, false, false, false, false, false, false, false, true , false, true , false, false, false, true , false, false, true , false, false, false, false, false, false, true , false, false, false, false, false, true , false, false, true , false, false, false, false, true , false, false, false, false, true , false, false, false, false, false, false, false, false, false, false, false, true , false, false, true , false, false, false, true , false, false, false, false, true , false, false, false, false, false, false, false, false, false, false, false, false, false, false, false, false, false, true , true , true , true , true , false, false, true , false, false, false, false, true , false, true , true , false, false, false, false, false, false, false, false, false, false, false, false, false, false, false, false, true , false, false, false, true , false, false, false, false, false, false, false, false, false, false, false, false, true , false, true , false, false, false, false, false, false, false, false, false, false, true , false, false, false, true , false, true , false, false, true 
|false, false, false, false, false, false, false, false, true , false, true , false, false, false, true , false, false, true , false, false, false, false, false, false, true , false, false, false, false, false, true , false, false, true , false, false, false, false, false, false, false, false, false, true , false, false, false, false, false, false, false, false, false, false, false, true , false, false, true , false, false, false, true , false, false, false, false, true , false, false, false, false, false, false, false, false, false, false, false, false, false, false, false, false, false, true , true , true , true , true , false, false, false, false, false, false, false, false, false, false, false, false, false, false, false, false, false, false, false, false, false, false, false, false, false, false, false, false, false, false, false, true , false, false, false, false, false, false, false, false, false, false, false, false, false, false, true , false, false, false, false, false, false, false, false, false, false, true , false, false, false, true , false, true , false, false, true 
|false, false, false, false, false, false, false, false, false, false, true , false, false, false, false, false, false, false, true , false, false, false, false, true , true , false, false, false, false, false, false, false, false, false, false, false, false, false, false, false, false, false, false, false, false, false, false, false, false, true , false, false, false, false, true , true , false, false, false, false, false, false, false, false, false, false, false, false, false, false, false, false, false, false, false, false, false, false, false, false, false, false, false, true , false, false, false, false, false, false, false, true , false, true , false, false, true , true , false, false, true , false, false, false, false, false, false, false, false, false, false, false, false, false, false, true , false, false, false, false, false, false, false, false, true , false, false, true , false, true , false, false, false, true , false, true , false, false, false, false, true , false, false, false, false, true , false, false, false, true , false, false, true , false, false, false, true 
|false, true , false, false, false, false, false, false, false, false, true , false, false, false, true , false, false, false, true , false, false, false, false, true , true , false, false, false, false, false, true , false, false, false, false, false, false, false, true , false, false, false, false, false, false, false, false, false, false, true , false, false, false, false, true , true , false, false, false, false, false, false, false, false, false, false, false, false, false, false, false, false, false, false, true , false, false, false, false, false, false, false, false, true , false, false, false, false, false, false, false, true , false, true , false, false, true , true , true , true , true , false, false, false, false, false, false, false, true , false, false, false, false, false, false, true , false, true , false, false, false, false, false, false, true , false, false, true , false, true , false, false, false, true , false, true , false, true , false, false, true , false, false, false, false, true , false, false, false, true , false, false, true , false, false, false, true 
|false, true , false, false, true , false, false, false, true , false, false, false, false, false, true , false, false, false, true , false, false, false, false, true , false, false, true , false, false, false, true , false, false, false, false, false, false, false, true , false, false, false, false, true , true , false, false, false, false, false, false, false, false, false, false, false, false, false, true , false, false, false, false, false, true , false, false, false, false, false, false, false, false, false, true , false, false, false, false, false, false, false, false, false, false, false, false, false, false, false, false, true , false, true , false, false, true , true , true , true , true , false, false, false, false, false, false, true , true , false, false, false, true , false, false, true , false, true , false, false, false, false, false, false, true , false, false, true , false, true , false, false, false, false, false, true , false, true , false, false, true , false, false, false, false, true , false, false, false, true , false, false, false, false, true , false, true 
|false, true , true , false, true , false, false, false, true , false, false, false, true , false, true , false, false, false, false, false, false, false, false, true , false, false, true , false, false, false, true , false, false, false, false, true , true , false, true , false, false, false, false, true , true , false, false, false, false, false, false, false, false, false, false, false, false, false, true , false, false, false, false, false, true , false, false, false, false, false, true , false, false, true , false, false, false, false, false, true , false, false, false, false, false, false, false, false, false, false, false, false, false, false, false, false, true , false, true , true , false, false, false, false, false, false, false, true , true , true , true , false, true , false, false, false, false, true , false, false, false, false, false, false, false, false, false, false, false, true , false, false, false, false, false, false, true , true , false, false, true , false, false, false, false, false, false, false, false, false, false, false, false, false, true , false, true 
|false, false, true , false, true , false, true , false, true , false, false, false, true , false, false, false, false, false, false, false, false, false, false, true , false, false, false, false, false, false, true , false, false, false, false, true , true , false, false, false, false, false, false, false, false, true , false, false, false, false, false, false, false, false, false, false, false, false, true , false, false, false, false, false, false, false, true , false, false, false, true , false, false, true , false, false, false, false, false, true , false, false, false, false, false, false, false, false, false, false, false, false, true , true , false, false, false, false, false, false, false, false, false, false, false, false, false, true , false, true , true , false, true , false, false, false, true , false, false, false, false, false, false, false, false, false, false, false, false, true , false, true , false, false, true , false, true , false, true , false, true , false, false, false, true , false, false, false, false, false, false, false, true , false, false, true , false
|false, false, true , false, false, false, true , false, false, false, false, false, false, false, true , false, false, false, false, false, false, true , false, false, false, false, false, false, false, false, true , false, false, false, false, false, true , false, false, false, false, false, false, false, false, true , false, false, false, false, false, false, false, false, false, false, false, false, true , true , false, false, false, false, false, false, true , false, false, false, true , false, false, true , false, true , false, false, false, true , false, false, false, false, false, false, false, false, false, false, false, false, true , true , false, false, false, false, false, false, false, false, false, true , false, false, true , false, false, true , true , false, true , false, false, false, true , false, false, false, false, false, true , false, false, false, false, false, false, true , false, true , false, false, true , false, false, false, true , false, true , false, false, false, true , false, false, false, false, false, false, false, true , false, false, true , false
|false, false, false, false, true , false, true , false, false, false, false, false, false, false, true , false, false, false, false, false, false, true , false, false, false, false, false, false, false, false, true , false, false, false, false, false, false, false, false, false, false, false, false, false, false, false, false, false, false, false, false, false, false, false, false, false, false, false, true , true , false, false, false, false, false, false, true , false, false, false, true , true , false, false, false, true , false, true , false, true , false, false, false, true , false, false, false, false, false, false, true , false, true , true , false, false, false, false, false, false, false, false, false, true , false, false, true , false, false, false, false, false, true , false, false, false, true , false, false, false, false, false, true , false, false, false, false, false, false, false, false, true , false, false, true , false, false, false, true , false, false, false, false, false, false, false, false, false, false, false, true , false, true , false, false, false, false
|false, false, false, false, true , false, false, true , true , false, false, true , true , false, true , false, true , false, false, false, true , false, false, true , false, false, false, false, false, false, true , false, false, false, false, false, false, false, false, true , false, true , false, false, false, false, true , false, false, false, true , false, false, false, false, false, false, false, true , true , false, true , false, false, false, false, false, false, false, false, true , true , false, false, true , false, false, true , false, false, false, false, false, true , false, false, false, false, false, false, true , false, false, false, true , false, false, false, false, false, false, false, false, false, false, false, false, false, false, false, false, false, true , false, false, false, false, false, false, false, true , false, false, false, true , false, false, false, false, false, false, false, false, false, false, false, false, false, true , false, false, false, false, true , false, false, false, false, false, false, true , false, false, false, false, false, false
|false, false, false, false, true , false, false, true , true , false, false, true , true , false, true , false, true , true , false, false, true , false, false, true , false, false, false, false, false, false, true , false, false, false, false, false, false, false, false, true , false, true , false, false, false, false, true , false, false, false, true , false, false, false, false, false, false, true , false, true , false, true , false, false, false, false, false, false, false, false, false, true , false, false, true , false, false, false, false, false, false, false, false, false, true , false, false, false, false, false, false, false, false, false, true , true , false, false, false, false, false, false, false, false, true , false, false, false, false, false, false, false, false, false, false, true , false, false, false, false, true , false, false, false, true , false, false, false, false, false, false, true , false, false, false, false, false, false, true , true , false, false, false, true , false, false, false, false, false, false, true , true , false, false, false, false, false
|false, false, false, false, true , false, false, true , false, true , false, true , true , false, true , false, true , true , false, false, true , false, false, false, true , false, false, false, false, false, true , false, false, false, false, false, false, false, false, true , false, false, false, false, false, false, false, false, false, false, true , false, false, false, false, false, false, true , false, true , false, false, false, false, true , false, false, false, false, false, false, false, false, false, true , true , false, false, false, false, false, true , false, false, true , false, false, false, false, false, false, false, false, false, true , true , false, false, false, false, false, false, false, false, true , false, false, true , false, false, true , true , false, false, false, true , false, false, false, false, true , false, false, true , true , false, false, false, true , false, true , true , true , false, false, false, false, false, true , true , true , true , false, false, false, false, false, true , false, true , false, true , false, false, false, true , false
|false, false, false, false, true , false, false, true , false, true , false, false, true , false, true , false, false, true , false, true , false, false, false, false, true , false, false, false, false, false, false, false, false, false, false, false, false, false, false, false, false, false, false, true , false, false, false, false, false, false, false, false, true , false, false, false, false, true , false, true , false, false, false, false, true , false, true , false, false, false, false, false, false, false, true , true , false, false, false, false, false, true , false, false, true , false, false, false, false, false, false, false, false, false, true , true , false, false, false, false, false, false, false, false, true , false, false, true , false, false, true , true , false, false, true , true , false, false, false, false, true , false, false, true , false, false, false, false, true , false, true , true , true , false, false, false, false, false, false, true , true , true , false, false, false, false, false, true , false, true , false, true , false, false, false, true , false
|false, false, false, false, false, false, false, true , false, false, false, false, true , false, true , false, false, false, false, true , false, false, false, false, true , false, true , false, false, false, false, false, false, false, false, false, false, false, false, false, false, false, false, true , false, false, false, false, true , false, false, false, true , false, false, false, false, false, false, true , false, false, false, false, true , false, true , true , false, false, false, false, false, false, true , true , false, false, false, false, true , true , false, false, false, false, false, false, false, false, false, false, false, false, true , false, false, false, false, false, false, false, false, false, true , false, false, true , false, false, true , true , false, true , true , false, true , false, true , false, true , false, false, false, true , false, false, false, true , false, true , false, false, false, false, false, false, false, false, false, true , false, false, false, false, false, false, true , false, true , false, false, false, false, false, true , false
|false, true , false, false, false, false, false, false, false, false, false, false, false, false, false, false, false, false, false, false, false, false, false, false, false, false, true , false, false, false, false, false, false, false, false, true , false, true , false, false, false, true , false, false, false, false, false, true , true , false, false, false, false, false, false, false, true , false, false, false, false, true , false, true , true , false, false, true , false, false, true , false, true , true , true , false, true , false, false, false, true , false, false, false, false, false, false, false, false, false, false, false, false, false, true , false, false, false, false, false, false, false, false, false, false, false, false, true , false, false, false, true , false, true , false, false, true , false, true , false, true , false, false, false, true , true , false, false, false, false, false, false, false, false, false, false, false, false, false, false, false, false, false, false, false, false, true , false, true , true , false, false, false, false, false, false, false
|false, true , false, false, false, false, false, false, false, false, false, false, false, false, true , false, false, false, true , false, false, false, true , false, false, false, false, false, false, false, false, false, false, false, false, true , false, true , false, false, false, true , false, false, false, false, false, true , true , true , false, false, false, false, false, false, true , false, false, false, false, true , false, true , true , false, true , false, false, false, true , false, true , true , true , false, true , false, false, false, true , true , false, false, true , false, false, false, false, false, false, false, false, true , true , false, false, false, false, false, false, true , true , false, false, false, false, true , false, false, false, true , false, false, false, false, true , false, true , false, true , false, false, false, false, true , false, false, false, false, false, false, false, false, false, false, false, true , false, false, false, false, false, false, false, false, true , false, true , false, false, false, false, false, false, false, false
|false, false, false, false, false, false, false, false, false, false, false, false, false, false, true , false, false, false, true , false, false, false, true , false, false, false, false, false, false, false, false, false, false, false, false, true , true , false, false, false, false, true , false, false, false, false, false, true , true , true , false, false, false, false, false, false, false, false, false, false, false, true , false, true , true , false, true , false, false, false, true , false, true , true , true , false, true , false, false, false, false, true , false, false, true , false, false, false, false, false, false, false, false, true , false, true , false, false, false, false, false, true , true , false, false, false, false, false, false, false, false, true , false, false, false, false, false, false, false, false, true , false, false, false, false, true , false, false, false, false, true , false, false, false, false, false, false, true , false, false, false, false, false, false, false, false, true , false, true , false, false, false, false, false, false, false, false
|false, false, false, false, false, false, false, false, false, false, false, false, false, false, true , false, false, false, true , false, false, false, true , false, false, false, false, false, false, false, false, false, false, false, false, false, true , false, false, false, false, true , false, false, false, false, false, true , true , false, false, false, false, false, false, false, false, false, false, false, false, true , false, true , true , false, true , false, false, false, true , false, true , true , true , false, true , false, false, false, false, true , false, false, true , false, false, false, false, false, false, false, false, false, false, true , false, false, false, false, false, true , true , false, false, false, false, false, false, false, false, true , false, false, false, false, false, false, false, false, true , false, false, false, false, true , false, false, false, false, true , false, false, false, false, false, false, true , false, false, false, false, false, false, false, false, true , false, true , false, false, false, false, false, false, false, false
|];
