% Synthetic instance, 400 course groups.
% Generated by scripts/academiapp/make_synthetic.py, calibrated on the
% AcademiAPP snapshot: intensity distribution, evening share, groups
% per teacher, availability density, room capacities and resource mix.
% seed=20260807 slack=1.6 availability=1.0

Recursos=[Coliseo, LabAlimentos, LabElectronica, Ninguno, SalaSistemas];
sede=56;
salones=56;
Sc=[62,62,62,62,62,62,62,62,62,62,62,62,62,62,62,62,62,62,62,62,62,62,62,62,62,62,62,62,62,62,62,62,62,62,62,62,62,62,62,62,62,62,62,62,62,62,62,62,62,62,62,62,62,62,62,62];
Sr=[Ninguno, Ninguno, Ninguno, Ninguno, Ninguno, Ninguno, Ninguno, Ninguno, Ninguno, Ninguno, Ninguno, Ninguno, Ninguno, Ninguno, Ninguno, Ninguno, Ninguno, Ninguno, Ninguno, Ninguno, Ninguno, Ninguno, Ninguno, Ninguno, Ninguno, Ninguno, Ninguno, Ninguno, Ninguno, SalaSistemas, SalaSistemas, SalaSistemas, SalaSistemas, SalaSistemas, SalaSistemas, SalaSistemas, SalaSistemas, SalaSistemas, SalaSistemas, SalaSistemas, SalaSistemas, SalaSistemas, SalaSistemas, SalaSistemas, SalaSistemas, Coliseo, Coliseo, Coliseo, LabAlimentos, LabAlimentos, LabAlimentos, LabElectronica, LabElectronica, LabElectronica, LabElectronica, LabElectronica];
N=96;
ini=1;
fin=400;
Asig=400;
Ar=[Ninguno,Ninguno,SalaSistemas,SalaSistemas,Ninguno,Ninguno,Coliseo,Ninguno,Ninguno,LabAlimentos,Ninguno,Ninguno,Ninguno,LabAlimentos,SalaSistemas,Ninguno,Ninguno,Ninguno,Ninguno,SalaSistemas,Ninguno,Ninguno,Ninguno,Ninguno,SalaSistemas,SalaSistemas,Ninguno,Ninguno,Ninguno,SalaSistemas,Ninguno,SalaSistemas,Ninguno,Ninguno,SalaSistemas,Ninguno,Ninguno,Ninguno,Ninguno,Ninguno,Ninguno,Ninguno,Ninguno,Ninguno,Ninguno,Ninguno,Ninguno,SalaSistemas,Ninguno,Ninguno,Ninguno,SalaSistemas,Ninguno,Ninguno,SalaSistemas,SalaSistemas,SalaSistemas,SalaSistemas,Ninguno,Ninguno,LabAlimentos,Ninguno,Ninguno,Ninguno,Ninguno,Ninguno,Ninguno,SalaSistemas,Ninguno,Ninguno,Ninguno,Ninguno,Ninguno,Ninguno,Coliseo,SalaSistemas,Ninguno,Ninguno,Ninguno,Ninguno,SalaSistemas,Ninguno,Ninguno,SalaSistemas,Ninguno,Ninguno,Ninguno,Ninguno,Ninguno,Ninguno,SalaSistemas,SalaSistemas,Ninguno,Ninguno,Ninguno,SalaSistemas,Coliseo,Ninguno,Ninguno,Ninguno,Ninguno,Ninguno,Ninguno,SalaSistemas,Ninguno,SalaSistemas,Ninguno,Ninguno,Ninguno,SalaSistemas,Ninguno,Ninguno,Ninguno,Ninguno,Ninguno,Ninguno,Ninguno,SalaSistemas,Ninguno,Ninguno,Ninguno,Ninguno,Ninguno,Ninguno,SalaSistemas,Ninguno,Ninguno,Ninguno,SalaSistemas,Ninguno,Ninguno,Ninguno,Ninguno,Ninguno,SalaSistemas,Ninguno,Ninguno,SalaSistemas,Ninguno,Ninguno,Ninguno,Ninguno,Ninguno,Ninguno,SalaSistemas,Ninguno,Ninguno,Ninguno,SalaSistemas,SalaSistemas,Ninguno,Ninguno,SalaSistemas,Ninguno,SalaSistemas,Ninguno,Ninguno,Ninguno,Ninguno,Ninguno,SalaSistemas,Ninguno,Coliseo,Ninguno,Ninguno,SalaSistemas,SalaSistemas,Ninguno,Ninguno,Ninguno,Ninguno,Ninguno,LabAlimentos,Ninguno,Ninguno,Ninguno,SalaSistemas,LabAlimentos,Ninguno,Ninguno,Ninguno,SalaSistemas,Ninguno,Ninguno,Ninguno,Ninguno,Ninguno,Ninguno,Ninguno,SalaSistemas,Ninguno,Ninguno,SalaSistemas,Ninguno,Ninguno,Ninguno,Ninguno,SalaSistemas,SalaSistemas,Ninguno,Ninguno,Ninguno,Ninguno,SalaSistemas,Ninguno,LabElectronica,Coliseo,Ninguno,LabElectronica,Coliseo,Ninguno,SalaSistemas,Ninguno,Ninguno,Ninguno,Ninguno,Ninguno,Ninguno,Ninguno,Ninguno,Ninguno,Ninguno,SalaSistemas,Ninguno,SalaSistemas,SalaSistemas,Ninguno,Ninguno,SalaSistemas,Ninguno,Ninguno,Ninguno,Ninguno,SalaSistemas,Ninguno,Ninguno,Ninguno,Ninguno,Ninguno,Ninguno,Ninguno,LabAlimentos,Ninguno,Ninguno,SalaSistemas,SalaSistemas,Ninguno,Ninguno,SalaSistemas,LabAlimentos,Ninguno,SalaSistemas,Ninguno,Ninguno,Ninguno,LabElectronica,Ninguno,Ninguno,SalaSistemas,Ninguno,Ninguno,Ninguno,SalaSistemas,Ninguno,SalaSistemas,Ninguno,SalaSistemas,SalaSistemas,SalaSistemas,Ninguno,SalaSistemas,Ninguno,Ninguno,Ninguno,SalaSistemas,Ninguno,SalaSistemas,Ninguno,SalaSistemas,Ninguno,Ninguno,Ninguno,LabAlimentos,Ninguno,Ninguno,SalaSistemas,Ninguno,Ninguno,Ninguno,Ninguno,Ninguno,Ninguno,SalaSistemas,Ninguno,Ninguno,SalaSistemas,Ninguno,Ninguno,Ninguno,Ninguno,LabAlimentos,Ninguno,Ninguno,Ninguno,Ninguno,Ninguno,SalaSistemas,Ninguno,Ninguno,Ninguno,Ninguno,Ninguno,LabElectronica,Ninguno,Ninguno,Ninguno,Ninguno,Ninguno,SalaSistemas,Ninguno,Ninguno,Ninguno,Ninguno,SalaSistemas,SalaSistemas,Ninguno,Ninguno,Ninguno,Ninguno,Ninguno,SalaSistemas,Ninguno,LabAlimentos,Ninguno,Ninguno,SalaSistemas,SalaSistemas,Ninguno,Ninguno,Ninguno,Ninguno,Ninguno,Ninguno,Ninguno,Ninguno,Ninguno,Ninguno,Ninguno,Ninguno,SalaSistemas,SalaSistemas,SalaSistemas,Ninguno,Ninguno,Ninguno,Ninguno,SalaSistemas,SalaSistemas,Ninguno,Ninguno,Ninguno,Ninguno,SalaSistemas,Ninguno,SalaSistemas,Ninguno,Ninguno,LabElectronica,Ninguno,LabAlimentos,Ninguno,Ninguno,Ninguno,Ninguno,SalaSistemas,SalaSistemas,Ninguno,Ninguno,Ninguno,Ninguno,Ninguno,SalaSistemas,Ninguno,Ninguno,Ninguno,Ninguno,Ninguno,Ninguno,Coliseo,Ninguno,Ninguno,Ninguno,Ninguno,SalaSistemas,Ninguno,SalaSistemas,Ninguno,Ninguno,Ninguno,Ninguno];
Ae=[39,30,25,36,42,38,28,38,60,42,38,60,25,39,42,25,55,37,54,25,36,53,46,25,53,47,62,30,54,44,25,55,28,25,39,60,30,25,46,47,42,42,55,58,25,36,62,53,58,44,30,25,30,53,39,44,62,58,60,36,30,58,60,40,30,36,55,47,42,25,25,25,30,30,62,38,44,42,37,60,40,30,46,47,36,60,42,25,25,62,47,25,54,62,39,58,25,25,25,40,42,28,42,30,25,36,25,46,28,60,30,39,25,36,30,30,36,30,30,54,30,25,25,25,53,36,53,36,46,60,40,30,54,42,60,30,25,58,30,36,30,30,44,25,25,28,36,25,60,53,30,58,46,60,62,40,30,30,25,30,40,28,58,46,37,58,28,47,55,30,42,38,28,28,42,55,39,25,39,25,25,30,36,39,36,44,36,36,58,40,25,25,54,54,46,60,25,40,30,28,42,54,30,36,54,58,25,54,54,25,25,44,25,38,53,60,58,62,40,38,25,42,60,37,25,25,25,42,30,36,44,58,42,39,40,25,30,42,60,55,39,54,38,30,38,30,62,37,38,60,30,62,28,37,36,46,62,58,25,30,54,40,25,42,60,25,25,30,36,60,60,62,37,30,36,30,42,30,37,42,36,62,60,30,58,62,30,60,53,28,54,30,25,42,37,30,25,30,30,60,30,42,36,62,62,25,30,44,53,62,38,25,30,36,30,30,30,58,42,40,62,30,36,53,46,38,47,60,30,47,40,62,38,25,25,25,30,28,40,36,39,28,25,25,25,30,44,37,25,25,39,40,30,55,25,62,62,42,25,30,30,42,25,47,53,54,30,28,60,46,30,40,30,42,37,62,38,28,54,58,30,28,30,46,25,58,36,25,53,25,37,47,25,25,60,39,47,25,42,60];
