% Synthetic instance, 50 course groups.
% Generated by scripts/academiapp/make_synthetic.py, calibrated on the
% AcademiAPP snapshot: intensity distribution, evening share, groups
% per teacher, availability density, room capacities and resource mix.
% seed=20260807 slack=1.6 availability=1.0

Recursos=[LabAlimentos, Ninguno, SalaSistemas];
sede=11;
salones=11;
Sc=[62,62,62,62,62,62,62,62,62,62,62];
Sr=[Ninguno, Ninguno, Ninguno, Ninguno, Ninguno, Ninguno, SalaSistemas, SalaSistemas, SalaSistemas, LabAlimentos, LabAlimentos];
N=96;
ini=1;
fin=50;
Asig=50;
Ar=[Ninguno,Ninguno,Ninguno,Ninguno,Ninguno,Ninguno,Ninguno,Ninguno,SalaSistemas,Ninguno,SalaSistemas,Ninguno,Ninguno,Ninguno,Ninguno,Ninguno,Ninguno,Ninguno,Ninguno,SalaSistemas,SalaSistemas,SalaSistemas,Ninguno,Ninguno,Ninguno,Ninguno,Ninguno,Ninguno,SalaSistemas,Ninguno,Ninguno,Ninguno,Ninguno,Ninguno,Ninguno,Ninguno,LabAlimentos,LabAlimentos,Ninguno,Ninguno,Ninguno,Ninguno,Ninguno,SalaSistemas,Ninguno,Ninguno,SalaSistemas,Ninguno,Ninguno,LabAlimentos];
Ae=[36,40,25,36,25,37,25,30,42,37,62,58,42,25,42,30,58,36,54,55,25,62,25,25,37,42,37,38,30,25,25,54,44,38,25,30,62,62,60,39,40,28,39,42,30,60,25,36,30,44];
